 H  O Pt                                
   1.00000000000000     
     8.3458886423026613    0.0000000000000000    0.0000000000000000
     0.0000000000000000    9.6370021085201625    0.0000000000000000
     0.0000000000000000    0.0000000000000000   32.5429263608291137
   H    O    Pt
    48    24    36
Selective dynamics
Direct
  0.2171827618958422  0.4537057514429919  0.5094424165433727   T   T   T
  0.2135984961667008  0.4856334633972718  0.4614564977454916   T   T   T
  0.7646442282878182  0.8438102740958879  0.4630887375935663   T   T   T
  0.7916393226013004  0.6836227481377565  0.4762218790870774   T   T   T
  0.6159206950658964  0.9831392413797700  0.5080549008115468   T   T   T
  0.6010798441013866  0.0501022264994678  0.4654986300251033   T   T   T
  0.0557650407752064  0.7200467083053814  0.4554459518815616   T   T   T
  0.2289890996560566  0.8122004022495976  0.4597331266259783   T   T   T
  0.3090498686596769  0.2152768498760033  0.6725076829878955   T   T   T
  0.3929527731787886  0.0784036905608994  0.6767674096522265   T   T   T
  0.7800893471235675  0.5379880690354045  0.5921485184240244   T   T   T
  0.7855084808963715  0.6979956044561157  0.5959298010382796   T   T   T
  0.8771662366890673  0.4090109492351547  0.7555934721759610   T   T   T
  0.7640646878967526  0.3623635616650556  0.7219802149965892   T   T   T
  0.4676051083529281  0.7971695535198561  0.6946200069125588   T   T   T
  0.5995493796948204  0.9183242394424689  0.7007727577924445   T   T   T
  0.4530336587739280  0.7285202168899099  0.6187364337931177   T   T   T
  0.2316186124535277  0.1457120738836746  0.5638843872289285   T   T   T
  0.2028280667379163  0.8263638487083066  0.6342422357110230   T   T   T
  0.1531038456004928  0.9291541455285354  0.6724743998009416   T   T   T
  0.6674802241101018  0.5346556090368518  0.6563210700543184   T   T   T
  0.5593137262681526  0.3978288194253483  0.6680932809547856   T   T   T
  0.7934977851726430  0.0495598934125005  0.6249725141038082   T   T   T
  0.6283839009183854  0.1097235454971316  0.6372514440917435   T   T   T
  0.8137836516640389  0.1417278046635669  0.4943023465428590   T   T   T
  0.9714733019477164  0.1867221952267760  0.4694704214067582   T   T   T
  0.2545005506680779  0.0448189816202366  0.4664834321551771   T   T   T
  0.2697668307261953  0.9869014610023225  0.5105486601860094   T   T   T
  0.9585213086544002  0.8521137154350847  0.6221926538040502   T   T   T
  0.9790570859820732  0.9117940856370848  0.5803964162251283   T   T   T
  0.4906266926119096  0.3922855552128244  0.4776511442847645   T   T   T
  0.6055529965109806  0.2783665885541553  0.4586781773208967   T   T   T
  0.8645879847879736  0.3165138558736891  0.5556286941736549   T   T   T
  0.8501641974391990  0.2629105650605726  0.6000372459144314   T   T   T
  0.4538821261161773  0.2060713891654435  0.5843434862756293   T   T   T
  0.4732504083700939  0.2741005873215759  0.5434681848686544   T   T   T
  0.2704337744457031  0.4270552467202370  0.5903255814894330   T   T   T
  0.0912776449697848  0.4443026831481039  0.5820024282666082   T   T   T
  0.0598776238555370  0.1680593658654731  0.7118982531561429   T   T   T
  0.9454485426122623  0.1346189192961600  0.6791117100833711   T   T   T
  0.0786327803518112  0.1222119900730703  0.5360945681114385   T   T   T
  0.3260218128290669  0.6739387958840367  0.5866806400062283   T   T   T
  0.7298522345968755  0.4396206804689521  0.5061839370668677   T   T   T
  0.7220672648680817  0.5626810847842887  0.5361035616612290   T   T   T
  0.4958144888895414  0.9137937042785568  0.5741681775983705   T   T   T
  0.6735414723239714  0.9744534114285828  0.5774460912084187   T   T   T
  0.2815254592872123  0.6473817038833969  0.6948483465383526   T   T   T
  0.4417629915076783  0.5738391757538670  0.6946704269546877   T   T   T
  0.2352584819552918  0.4128288773362556  0.4818845768188978   T   T   T
  0.8292637095444552  0.7609237536385438  0.4585868348685460   T   T   T
  0.6759103500427142  0.9938498033872707  0.4828359017620630   T   T   T
  0.1768704231134496  0.7139128561050095  0.4487913132960199   T   T   T
  0.4106748553010037  0.1719359700397256  0.6647054801463126   T   T   T
  0.7125725721327287  0.6099179430739812  0.6031121788005732   T   T   T
  0.8416015736060336  0.3266158361153293  0.7411211431976560   T   T   T
  0.5096617442233436  0.8881201247489944  0.6834397129861534   T   T   T
  0.1544161171329708  0.0728431370420630  0.5562565232466017   T   T   T
  0.1230533617738284  0.8479265832118635  0.6575208426222579   T   T   T
  0.6224880149483235  0.4723858963475066  0.6787085785128625   T   T   T
  0.7481835454180932  0.1282571201605360  0.6402255525734847   T   T   T
  0.9322595824559250  0.1683559449714224  0.4975892760548806   T   T   T
  0.2961355902697376  0.9625287243382477  0.4812461764063624   T   T   T
  0.8915075015618398  0.8702311130733377  0.5981281321520830   T   T   T
  0.5743702444216615  0.3274767516710234  0.4842005126110991   T   T   T
  0.8815383750109892  0.3473917034802669  0.5835187600121580   T   T   T
  0.4174990744901671  0.2848708066223151  0.5689455732292714   T   T   T
  0.1893681811436552  0.4991092622934163  0.5816283339312179   T   T   T
  0.0567753448417640  0.1269374399107500  0.6835746729729788   T   T   T
  0.3622500369359841  0.7566565241598423  0.6026499133487102   T   T   T
  0.7782851225312055  0.5331663669959973  0.5119339937069248   T   T   T
  0.5617335431944117  0.9922454363159757  0.5671952658939852   T   T   T
  0.3908994592656505  0.6602540657761817  0.7033072599710775   T   T   T
  0.1666666700000000  0.0833333330000000  0.2412367800000000   F   F   F
  0.5000000000000000  0.0833333330000000  0.2412367800000000   F   F   F
  0.8333333300000000  0.0833333330000000  0.2412367800000000   F   F   F
  0.0000000000000000  0.3333333300000000  0.2412367800000000   F   F   F
  0.3333333300000000  0.3333333300000000  0.2412367800000000   F   F   F
  0.6666666700000000  0.3333333300000000  0.2412367800000000   F   F   F
  0.1666666700000000  0.5833333300000000  0.2412367800000000   F   F   F
  0.5000000000000000  0.5833333300000000  0.2412367800000000   F   F   F
  0.8333333300000000  0.5833333300000000  0.2412367800000000   F   F   F
  0.0000000000000000  0.8333333300000000  0.2412367800000000   F   F   F
  0.3333333300000000  0.8333333300000000  0.2412367800000000   F   F   F
  0.6666666700000000  0.8333333300000000  0.2412367800000000   F   F   F
  0.0000000000000000  0.1666666700000000  0.3110357600000000   F   F   F
  0.3333333300000000  0.1666666700000000  0.3110357600000000   F   F   F
  0.6666666700000000  0.1666666700000000  0.3110357600000000   F   F   F
  0.1666666700000000  0.4166666700000000  0.3110357600000000   F   F   F
  0.5000000000000000  0.4166666700000000  0.3110357600000000   F   F   F
  0.8333333300000000  0.4166666700000000  0.3110357600000000   F   F   F
  0.0000000000000000  0.6666666700000000  0.3110357600000000   F   F   F
  0.3333333300000000  0.6666666700000000  0.3110357600000000   F   F   F
  0.6666666700000000  0.6666666700000000  0.3110357600000000   F   F   F
  0.1666666700000000  0.9166666700000000  0.3110357600000000   F   F   F
  0.5000000000000000  0.9166666700000000  0.3110357600000000   F   F   F
  0.8333333300000000  0.9166666700000000  0.3110357600000000   F   F   F
  0.9983441495328472  0.0074631032107028  0.3857428534702984   T   T   T
  0.3453511651097762  0.9926497229900041  0.3835562375084712   T   T   T
  0.6694145202086388  0.9999456896037053  0.3820019610981265   T   T   T
  0.1577113788783118  0.2459195402042802  0.3882801357048829   T   T   T
  0.5065205849482403  0.2550124294194261  0.3846530388615481   T   T   T
  0.8330515473533283  0.2397135884013684  0.3822715430464321   T   T   T
  0.9741234489975512  0.4907744201108987  0.3868370502087907   T   T   T
  0.3125589265396541  0.4881916704019884  0.3808438246455067   T   T   T
  0.6447785920416076  0.5151759122238049  0.3858338655890746   T   T   T
  0.1551664764211204  0.7396946420889549  0.3816432864148572   T   T   T
  0.4827188860065558  0.7551940808626511  0.3833338155168682   T   T   T
  0.8189638661220561  0.7558469293518237  0.3824274277693394   T   T   T
 
  0.16730387E-01 -0.51585759E-02  0.99098674E-02
  0.37462751E-03  0.13057873E-01 -0.10859211E-01
 -0.20941008E-01  0.98622829E-02 -0.73371228E-02
  0.20852682E-02 -0.11303919E-01  0.34906022E-01
 -0.20461844E-01  0.28346481E-04 -0.24356208E-02
  0.87156073E-02 -0.19638026E-01  0.74219256E-02
  0.17891456E-01 -0.40838293E-02 -0.18506131E-01
 -0.81087435E-02 -0.30547419E-01  0.12187944E-01
 -0.11271459E-02 -0.94264821E-02 -0.27640089E-01
  0.37055679E-02 -0.44488253E-02 -0.33888902E-01
 -0.28508553E-01 -0.11139358E-01  0.65194771E-02
  0.13322874E-01 -0.10906920E-03 -0.61095670E-02
  0.32887853E-01 -0.30598115E-01 -0.19135461E-01
  0.16241755E-01  0.19508923E-01 -0.12628990E-01
  0.25036367E-01  0.70121299E-02 -0.26723656E-01
  0.63876819E-02  0.30444159E-01  0.38106372E-02
 -0.13114283E-01  0.37287863E-02  0.16123533E-01
 -0.11924297E-01  0.17734342E-01  0.13141044E-01
  0.39429216E-03  0.22015154E-01  0.12787746E-01
  0.42312684E-02  0.65740270E-02 -0.17492879E-02
 -0.26114063E-01 -0.86032720E-02 -0.74590359E-02
 -0.29807429E-02 -0.35469751E-02  0.18092232E-02
 -0.55207688E-02 -0.96223154E-02 -0.17381968E-01
  0.16545345E-01  0.20334841E-01 -0.17238100E-01
  0.93345497E-02 -0.15926939E-01 -0.25226836E-01
 -0.14289407E-02 -0.56292095E-02  0.16371633E-01
 -0.19563162E-01 -0.26888417E-02 -0.33621631E-02
 -0.31547640E-01 -0.18352248E-01 -0.77637748E-02
  0.12710297E-01 -0.82374050E-02  0.22010250E-01
 -0.11649533E-01 -0.18221216E-01 -0.16785597E-01
 -0.22703517E-01  0.92328720E-02  0.95083903E-02
 -0.99643001E-02 -0.84616812E-02  0.22722602E-02
  0.30507035E-01  0.93173369E-02  0.32708105E-02
 -0.16500578E-01  0.12273894E-01 -0.44511429E-01
 -0.22122085E-01 -0.28171972E-01  0.21304104E-02
  0.54896887E-04 -0.11529078E-02 -0.93353472E-02
  0.12654793E-01  0.16326747E-01  0.19283624E-01
 -0.48432768E-02  0.98154398E-02 -0.13138036E-01
 -0.16404007E-01  0.21332601E-01 -0.50426195E-02
 -0.19945023E-01  0.19154618E-01 -0.11025580E-01
 -0.26308002E-01 -0.21223401E-01 -0.16586370E-01
 -0.44134355E-02 -0.22209672E-01  0.22032239E-01
  0.19861692E-01  0.30498896E-02  0.17371167E-01
  0.11017156E-02 -0.15922988E-03  0.21130406E-01
  0.45734142E-02 -0.19843872E-02  0.11960282E-01
 -0.20032606E-01 -0.11708203E-01 -0.20197884E-01
  0.53898303E-02  0.97515620E-02  0.64370415E-02
 -0.11577500E-01 -0.11075437E-01 -0.35755899E-02
 -0.84708277E-02 -0.11496008E-02 -0.23698671E-02
  0.25742947E-03 -0.14090887E-02 -0.15697596E-02
 -0.42357361E-02 -0.47048373E-03  0.34622244E-02
  0.10899695E-02  0.64543336E-02  0.20888544E-02
 -0.71888961E-02 -0.60066814E-03 -0.19506600E-02
 -0.12823409E-03 -0.10787400E-02 -0.45916496E-02
  0.18512167E-02  0.20821022E-03 -0.28460479E-02
 -0.65384699E-02  0.42726405E-02  0.21552822E-02
 -0.27285248E-02  0.74375539E-03 -0.25865173E-02
 -0.20885869E-02  0.49190361E-03 -0.84609149E-02
  0.98206940E-02 -0.27273196E-02  0.23365194E-02
 -0.14795632E-02 -0.53305427E-02  0.32874807E-02
  0.13060168E-03 -0.22587865E-02 -0.32905607E-03
 -0.28181897E-03 -0.23852471E-02  0.16042852E-02
  0.15244009E-01 -0.10643117E-01  0.38793477E-02
  0.46737346E-02  0.18320853E-02 -0.16705849E-02
  0.11307566E-02 -0.20996987E-02  0.80669874E-03
  0.23742651E-02 -0.11754614E-02  0.44410267E-02
 -0.10906681E-02  0.41469266E-02  0.46887469E-02
  0.39547893E-03 -0.29168347E-02  0.44397574E-02
 -0.36652998E-02 -0.18803334E-02 -0.63087330E-02
 -0.47045538E-02 -0.47613567E-02  0.33935420E-02
  0.78182867E-02  0.12408176E-02 -0.10872966E-02
  0.34657588E-02  0.42985334E-02 -0.11119662E-02
  0.00000000E+00  0.00000000E+00  0.00000000E+00
  0.00000000E+00  0.00000000E+00  0.00000000E+00
  0.00000000E+00  0.00000000E+00  0.00000000E+00
  0.00000000E+00  0.00000000E+00  0.00000000E+00
  0.00000000E+00  0.00000000E+00  0.00000000E+00
  0.00000000E+00  0.00000000E+00  0.00000000E+00
  0.00000000E+00  0.00000000E+00  0.00000000E+00
  0.00000000E+00  0.00000000E+00  0.00000000E+00
  0.00000000E+00  0.00000000E+00  0.00000000E+00
  0.00000000E+00  0.00000000E+00  0.00000000E+00
  0.00000000E+00  0.00000000E+00  0.00000000E+00
  0.00000000E+00  0.00000000E+00  0.00000000E+00
  0.00000000E+00  0.00000000E+00  0.00000000E+00
  0.00000000E+00  0.00000000E+00  0.00000000E+00
  0.00000000E+00  0.00000000E+00  0.00000000E+00
  0.00000000E+00  0.00000000E+00  0.00000000E+00
  0.00000000E+00  0.00000000E+00  0.00000000E+00
  0.00000000E+00  0.00000000E+00  0.00000000E+00
  0.00000000E+00  0.00000000E+00  0.00000000E+00
  0.00000000E+00  0.00000000E+00  0.00000000E+00
  0.00000000E+00  0.00000000E+00  0.00000000E+00
  0.00000000E+00  0.00000000E+00  0.00000000E+00
  0.00000000E+00  0.00000000E+00  0.00000000E+00
  0.00000000E+00  0.00000000E+00  0.00000000E+00
 -0.12645013E-02 -0.30122616E-03  0.78850385E-03
  0.63909030E-03  0.16934954E-02 -0.14092431E-02
 -0.24082243E-02 -0.25895129E-03  0.16212106E-02
  0.11363563E-02 -0.89199075E-03 -0.71772951E-03
 -0.76372095E-03  0.87250694E-03 -0.91626352E-03
 -0.42156152E-03  0.15138917E-02 -0.13556072E-02
  0.26216069E-02 -0.55023721E-03 -0.10334638E-02
 -0.39213556E-04 -0.17600182E-02 -0.35971817E-04
 -0.20621651E-02  0.12126151E-02 -0.10224679E-03
  0.13255307E-02  0.12092448E-02 -0.17136264E-03
 -0.93576757E-03  0.12115617E-02 -0.23489437E-04
 -0.14445695E-02  0.18840225E-02  0.13529733E-02
 
           1
   1.00000000000000     
  0.64106281E+01 -0.28301700E-01 -0.25229225E-17  0.00000000E+00
  0.21918739E+00  0.45317046E+00  0.50974693E+00
  0.21364338E+00  0.48698844E+00  0.46112281E+00
  0.76213509E+00  0.84483365E+00  0.46286328E+00
  0.79188918E+00  0.68244978E+00  0.47729449E+00
  0.61346897E+00  0.98314218E+00  0.50798006E+00
  0.60212414E+00  0.48064453E-01  0.46572670E+00
  0.57908786E-01  0.71962294E+00  0.45487728E+00
  0.22801751E+00  0.80903060E+00  0.46010765E+00
  0.30891481E+00  0.21429869E+00  0.67165834E+00
  0.39339677E+00  0.77942051E-01  0.67572605E+00
  0.77667347E+00  0.53683217E+00  0.59234885E+00
  0.78710482E+00  0.69798429E+00  0.59574206E+00
  0.88110684E+00  0.40583588E+00  0.75500547E+00
  0.76601077E+00  0.36438794E+00  0.72159214E+00
  0.47060495E+00  0.79789718E+00  0.69379883E+00
  0.60031475E+00  0.92148333E+00  0.70088985E+00
  0.45146231E+00  0.72890714E+00  0.61923189E+00
  0.23018985E+00  0.14755231E+00  0.56428819E+00
  0.20287531E+00  0.82864829E+00  0.63463519E+00
  0.15361083E+00  0.92983631E+00  0.67242065E+00
  0.66435125E+00  0.53376288E+00  0.65609186E+00
  0.55895658E+00  0.39746076E+00  0.66814888E+00
  0.79283629E+00  0.48561417E-01  0.62443839E+00
  0.63036636E+00  0.11183363E+00  0.63672174E+00
  0.81490211E+00  0.14007512E+00  0.49352716E+00
  0.97130209E+00  0.18613807E+00  0.46997350E+00
  0.25215650E+00  0.44539969E-01  0.46638012E+00
  0.26598681E+00  0.98499711E+00  0.51031009E+00
  0.96004425E+00  0.85125895E+00  0.62286900E+00
  0.97766125E+00  0.90990333E+00  0.57988062E+00
  0.48790637E+00  0.39324362E+00  0.47794332E+00
  0.60435908E+00  0.27748855E+00  0.45874800E+00
  0.86824332E+00  0.31748069E+00  0.55572920E+00
  0.84818711E+00  0.26418419E+00  0.59866947E+00
  0.45123147E+00  0.20314808E+00  0.58440895E+00
  0.47325699E+00  0.27398095E+00  0.54318132E+00
  0.27195007E+00  0.42874942E+00  0.59091814E+00
  0.90697326E-01  0.44532120E+00  0.58159871E+00
  0.57912104E-01  0.17027298E+00  0.71174330E+00
  0.94305874E+00  0.13660653E+00  0.67877291E+00
  0.75480569E-01  0.12000971E+00  0.53558489E+00
  0.32549300E+00  0.67163417E+00  0.58735766E+00
  0.73223205E+00  0.43993716E+00  0.50671773E+00
  0.72219927E+00  0.56266456E+00  0.53675287E+00
  0.49636247E+00  0.91358779E+00  0.57453570E+00
  0.67114118E+00  0.97323849E+00  0.57682544E+00
  0.28217127E+00  0.64839359E+00  0.69504615E+00
  0.44037578E+00  0.57268991E+00  0.69456055E+00
  0.23424351E+00  0.41270959E+00  0.48181175E+00
  0.82929455E+00  0.76077754E+00  0.45853860E+00
  0.67540283E+00  0.99380098E+00  0.48294229E+00
  0.17700102E+00  0.71458260E+00  0.44885550E+00
  0.40981349E+00  0.17187364E+00  0.66464554E+00
  0.71255721E+00  0.60980601E+00  0.60297108E+00
  0.84182339E+00  0.32663744E+00  0.74103369E+00
  0.50887831E+00  0.88856348E+00  0.68350594E+00
  0.15408919E+00  0.72920314E-01  0.55617704E+00
  0.12280311E+00  0.84797763E+00  0.65726085E+00
  0.62366473E+00  0.47210289E+00  0.67878038E+00
  0.74800626E+00  0.12770399E+00  0.64032657E+00
  0.93227523E+00  0.16812156E+00  0.49757916E+00
  0.29610182E+00  0.96228122E+00  0.48129547E+00
  0.89333403E+00  0.86912671E+00  0.59824734E+00
  0.57493025E+00  0.32766686E+00  0.48414918E+00
  0.88167386E+00  0.34717382E+00  0.58354355E+00
  0.41778356E+00  0.28474883E+00  0.56908204E+00
  0.18923750E+00  0.49953958E+00  0.58177241E+00
  0.56822731E-01  0.12663477E+00  0.68371110E+00
  0.36181086E+00  0.75646141E+00  0.60245605E+00
  0.77772143E+00  0.53267230E+00  0.51203827E+00
  0.56267033E+00  0.99237419E+00  0.56716185E+00
  0.39131472E+00  0.66070011E+00  0.70327309E+00
  0.16666667E+00  0.83333333E-01  0.24123678E+00
  0.50000000E+00  0.83333333E-01  0.24123678E+00
  0.83333333E+00  0.83333333E-01  0.24123678E+00
  0.00000000E+00  0.33333333E+00  0.24123678E+00
  0.33333333E+00  0.33333333E+00  0.24123678E+00
  0.66666667E+00  0.33333333E+00  0.24123678E+00
  0.16666667E+00  0.58333333E+00  0.24123678E+00
  0.50000000E+00  0.58333333E+00  0.24123678E+00
  0.83333333E+00  0.58333333E+00  0.24123678E+00
  0.00000000E+00  0.83333333E+00  0.24123678E+00
  0.33333333E+00  0.83333333E+00  0.24123678E+00
  0.66666667E+00  0.83333333E+00  0.24123678E+00
  0.00000000E+00  0.16666667E+00  0.31103576E+00
  0.33333333E+00  0.16666667E+00  0.31103576E+00
  0.66666667E+00  0.16666667E+00  0.31103576E+00
  0.16666667E+00  0.41666667E+00  0.31103576E+00
  0.50000000E+00  0.41666667E+00  0.31103576E+00
  0.83333333E+00  0.41666667E+00  0.31103576E+00
  0.00000000E+00  0.66666667E+00  0.31103576E+00
  0.33333333E+00  0.66666667E+00  0.31103576E+00
  0.66666667E+00  0.66666667E+00  0.31103576E+00
  0.16666667E+00  0.91666667E+00  0.31103576E+00
  0.50000000E+00  0.91666667E+00  0.31103576E+00
  0.83333333E+00  0.91666667E+00  0.31103576E+00
  0.99819264E+00  0.74318460E-02  0.38576708E+00
  0.34542774E+00  0.99282545E+00  0.38351293E+00
  0.66912597E+00  0.99991882E+00  0.38205178E+00
  0.15784754E+00  0.24582698E+00  0.38825808E+00
  0.50642908E+00  0.25510297E+00  0.38462488E+00
  0.83300104E+00  0.23987068E+00  0.38222989E+00
  0.97443757E+00  0.49071732E+00  0.38680529E+00
  0.31255423E+00  0.48800904E+00  0.38084272E+00
  0.64453150E+00  0.51530174E+00  0.38583072E+00
  0.15532530E+00  0.73982012E+00  0.38163802E+00
  0.48260676E+00  0.75531980E+00  0.38333309E+00
  0.81879078E+00  0.75604243E+00  0.38246900E+00
  0.20205929E-02 -0.51411184E-03  0.38934711E-03
  0.81213365E-04  0.13859626E-02 -0.38257806E-03
 -0.22939476E-02  0.74106368E-03 -0.28210638E-03
  0.35541227E-03 -0.11043383E-02  0.11018452E-02
 -0.21787934E-02  0.11262271E-03 -0.20982265E-03
  0.76705799E-03 -0.16058096E-02  0.20405171E-03
  0.13115241E-02 -0.54777331E-03 -0.55016193E-03
 -0.36618931E-03 -0.23003814E-02  0.44311540E-03
 -0.13311404E-03 -0.10456378E-02 -0.78877095E-03
  0.55466611E-04 -0.52906873E-03 -0.98820119E-03
 -0.36785509E-02 -0.51249512E-03  0.19715508E-03
  0.25215661E-02  0.85139482E-03 -0.31532518E-03
  0.38927038E-02 -0.32042395E-02 -0.60703472E-03
  0.22727988E-02  0.18508700E-02 -0.28140955E-03
  0.28830076E-02  0.51949961E-03 -0.79537642E-03
  0.10009076E-02  0.32792316E-02  0.15611724E-03
 -0.18912932E-02  0.55156843E-03  0.42912297E-03
 -0.13182104E-02  0.18837519E-02  0.40390880E-03
  0.31622581E-03  0.20383616E-02  0.16533157E-03
  0.36385749E-03  0.18674807E-03 -0.72212343E-04
 -0.27544102E-02 -0.32799882E-03 -0.28493385E-03
 -0.26792683E-03  0.15336615E-04  0.18761385E-03
 -0.80002575E-03 -0.92426146E-03 -0.57049742E-03
  0.10670323E-02  0.18316779E-02 -0.59597514E-03
  0.36133832E-04 -0.15916493E-02 -0.76895074E-03
 -0.45928756E-04 -0.59537227E-03  0.45838249E-03
 -0.24378896E-02 -0.29000197E-04 -0.84576525E-04
 -0.37220639E-02 -0.17418172E-02 -0.16615329E-03
  0.13368865E-02 -0.80656670E-03  0.49562101E-03
 -0.76012976E-03 -0.16972032E-02 -0.56575613E-03
 -0.21593550E-02  0.80427754E-03  0.37413206E-03
 -0.10153514E-02 -0.11659625E-02  0.68072002E-04
  0.35580599E-02  0.96698485E-03  0.20563839E-03
 -0.20781957E-02  0.72541381E-03 -0.13392108E-02
 -0.28557972E-02 -0.25905252E-02 -0.39545442E-04
 -0.23598303E-03 -0.19816736E-03 -0.10192987E-03
  0.18758825E-02  0.12378777E-02  0.69418773E-03
 -0.23533342E-03  0.10177314E-02 -0.40522407E-03
 -0.20401895E-02  0.24067319E-02 -0.11346576E-04
 -0.12519199E-02  0.19628184E-02 -0.22081871E-03
 -0.35312183E-02 -0.18259318E-02 -0.62477897E-03
 -0.60881047E-03 -0.25628804E-02  0.58419770E-03
  0.23064121E-02 -0.93316510E-04  0.59529128E-03
  0.39156458E-03 -0.21123165E-03  0.55033313E-03
  0.77756807E-03  0.22770329E-03  0.29710055E-03
 -0.16149044E-02 -0.10802006E-02 -0.56468306E-03
  0.11337591E-02  0.77922800E-03  0.22212320E-03
 -0.19095419E-02 -0.10643044E-02 -0.11714963E-03
 -0.10193038E-02 -0.12381717E-03 -0.76960328E-04
 -0.14426128E-05 -0.12155509E-03 -0.45733073E-04
 -0.48756184E-03 -0.84073987E-04  0.11580539E-03
  0.15800273E-03  0.59825955E-03  0.53975931E-04
 -0.83850884E-03 -0.52950342E-04 -0.64519312E-04
 -0.60644689E-04 -0.20491889E-03 -0.13543340E-03
  0.19919631E-03  0.34551537E-04 -0.91826050E-04
 -0.80013982E-03  0.41931003E-03  0.65306545E-04
 -0.30082345E-03  0.56827425E-04 -0.69770027E-04
 -0.25758097E-03  0.10890070E-03 -0.24341830E-03
  0.11454232E-02 -0.32736879E-03  0.68782808E-04
 -0.12370507E-03 -0.53683088E-03  0.10676021E-03
  0.61654186E-04 -0.23922056E-03 -0.81843256E-05
 -0.22914780E-04 -0.26439183E-03  0.44694236E-04
  0.17963968E-02 -0.11270661E-02  0.13315445E-03
  0.51793403E-03  0.22246316E-03 -0.56839372E-04
  0.14490450E-03 -0.18758011E-03  0.16538150E-04
  0.30709000E-03 -0.13101240E-03  0.13032641E-03
 -0.17482278E-03  0.45572668E-03  0.13999066E-03
 -0.19421465E-04 -0.32073548E-03  0.11754977E-03
 -0.41028458E-03 -0.19265588E-03 -0.18278330E-03
 -0.56958114E-03 -0.46935338E-03  0.10931214E-03
  0.87578493E-03  0.10068622E-03 -0.31903424E-04
  0.43011324E-03  0.46898868E-03 -0.38541896E-04
  0.00000000E+00  0.00000000E+00  0.00000000E+00
  0.00000000E+00  0.00000000E+00  0.00000000E+00
  0.00000000E+00  0.00000000E+00  0.00000000E+00
  0.00000000E+00  0.00000000E+00  0.00000000E+00
  0.00000000E+00  0.00000000E+00  0.00000000E+00
  0.00000000E+00  0.00000000E+00  0.00000000E+00
  0.00000000E+00  0.00000000E+00  0.00000000E+00
  0.00000000E+00  0.00000000E+00  0.00000000E+00
  0.00000000E+00  0.00000000E+00  0.00000000E+00
  0.00000000E+00  0.00000000E+00  0.00000000E+00
  0.00000000E+00  0.00000000E+00  0.00000000E+00
  0.00000000E+00  0.00000000E+00  0.00000000E+00
  0.00000000E+00  0.00000000E+00  0.00000000E+00
  0.00000000E+00  0.00000000E+00  0.00000000E+00
  0.00000000E+00  0.00000000E+00  0.00000000E+00
  0.00000000E+00  0.00000000E+00  0.00000000E+00
  0.00000000E+00  0.00000000E+00  0.00000000E+00
  0.00000000E+00  0.00000000E+00  0.00000000E+00
  0.00000000E+00  0.00000000E+00  0.00000000E+00
  0.00000000E+00  0.00000000E+00  0.00000000E+00
  0.00000000E+00  0.00000000E+00  0.00000000E+00
  0.00000000E+00  0.00000000E+00  0.00000000E+00
  0.00000000E+00  0.00000000E+00  0.00000000E+00
  0.00000000E+00  0.00000000E+00  0.00000000E+00
 -0.15258294E-03 -0.29063062E-04  0.24407165E-04
  0.79374703E-04  0.17204501E-03 -0.43029822E-04
 -0.28693383E-03 -0.27570616E-04  0.49601340E-04
  0.13462428E-03 -0.92333292E-04 -0.21736230E-04
 -0.89803112E-04  0.90887348E-04 -0.27948386E-04
 -0.49617318E-04  0.15493829E-03 -0.41846756E-04
  0.31284200E-03 -0.57278736E-04 -0.31291627E-04
 -0.60099971E-05 -0.18255292E-03 -0.12580275E-05
 -0.24699446E-03  0.12727503E-03 -0.29145932E-05
  0.15887636E-03  0.12445980E-03 -0.53399520E-05
 -0.11369008E-03  0.12722561E-03 -0.64993265E-06
 -0.17333352E-03  0.19662544E-03  0.41293113E-04
  0.00000000E+00  0.00000000E+00  0.00000000E+00
  0.00000000E+00  0.00000000E+00  0.00000000E+00
  0.00000000E+00  0.00000000E+00  0.00000000E+00
  0.00000000E+00  0.00000000E+00  0.00000000E+00
  0.00000000E+00  0.00000000E+00  0.00000000E+00
  0.00000000E+00  0.00000000E+00  0.00000000E+00
  0.00000000E+00  0.00000000E+00  0.00000000E+00
  0.00000000E+00  0.00000000E+00  0.00000000E+00
  0.00000000E+00  0.00000000E+00  0.00000000E+00
  0.00000000E+00  0.00000000E+00  0.00000000E+00
  0.00000000E+00  0.00000000E+00  0.00000000E+00
  0.00000000E+00  0.00000000E+00  0.00000000E+00
  0.00000000E+00  0.00000000E+00  0.00000000E+00
  0.00000000E+00  0.00000000E+00  0.00000000E+00
  0.00000000E+00  0.00000000E+00  0.00000000E+00
  0.00000000E+00  0.00000000E+00  0.00000000E+00
  0.00000000E+00  0.00000000E+00  0.00000000E+00
  0.00000000E+00  0.00000000E+00  0.00000000E+00
  0.00000000E+00  0.00000000E+00  0.00000000E+00
  0.00000000E+00  0.00000000E+00  0.00000000E+00
  0.00000000E+00  0.00000000E+00  0.00000000E+00
  0.00000000E+00  0.00000000E+00  0.00000000E+00
  0.00000000E+00  0.00000000E+00  0.00000000E+00
  0.00000000E+00  0.00000000E+00  0.00000000E+00
  0.00000000E+00  0.00000000E+00  0.00000000E+00
  0.00000000E+00  0.00000000E+00  0.00000000E+00
  0.00000000E+00  0.00000000E+00  0.00000000E+00
  0.00000000E+00  0.00000000E+00  0.00000000E+00
  0.00000000E+00  0.00000000E+00  0.00000000E+00
  0.00000000E+00  0.00000000E+00  0.00000000E+00
  0.00000000E+00  0.00000000E+00  0.00000000E+00
  0.00000000E+00  0.00000000E+00  0.00000000E+00
  0.00000000E+00  0.00000000E+00  0.00000000E+00
  0.00000000E+00  0.00000000E+00  0.00000000E+00
  0.00000000E+00  0.00000000E+00  0.00000000E+00
  0.00000000E+00  0.00000000E+00  0.00000000E+00
  0.00000000E+00  0.00000000E+00  0.00000000E+00
  0.00000000E+00  0.00000000E+00  0.00000000E+00
  0.00000000E+00  0.00000000E+00  0.00000000E+00
  0.00000000E+00  0.00000000E+00  0.00000000E+00
  0.00000000E+00  0.00000000E+00  0.00000000E+00
  0.00000000E+00  0.00000000E+00  0.00000000E+00
  0.00000000E+00  0.00000000E+00  0.00000000E+00
  0.00000000E+00  0.00000000E+00  0.00000000E+00
  0.00000000E+00  0.00000000E+00  0.00000000E+00
  0.00000000E+00  0.00000000E+00  0.00000000E+00
  0.00000000E+00  0.00000000E+00  0.00000000E+00
  0.00000000E+00  0.00000000E+00  0.00000000E+00
  0.00000000E+00  0.00000000E+00  0.00000000E+00
  0.00000000E+00  0.00000000E+00  0.00000000E+00
  0.00000000E+00  0.00000000E+00  0.00000000E+00
  0.00000000E+00  0.00000000E+00  0.00000000E+00
  0.00000000E+00  0.00000000E+00  0.00000000E+00
  0.00000000E+00  0.00000000E+00  0.00000000E+00
  0.00000000E+00  0.00000000E+00  0.00000000E+00
  0.00000000E+00  0.00000000E+00  0.00000000E+00
  0.00000000E+00  0.00000000E+00  0.00000000E+00
  0.00000000E+00  0.00000000E+00  0.00000000E+00
  0.00000000E+00  0.00000000E+00  0.00000000E+00
  0.00000000E+00  0.00000000E+00  0.00000000E+00
  0.00000000E+00  0.00000000E+00  0.00000000E+00
  0.00000000E+00  0.00000000E+00  0.00000000E+00
  0.00000000E+00  0.00000000E+00  0.00000000E+00
  0.00000000E+00  0.00000000E+00  0.00000000E+00
  0.00000000E+00  0.00000000E+00  0.00000000E+00
  0.00000000E+00  0.00000000E+00  0.00000000E+00
  0.00000000E+00  0.00000000E+00  0.00000000E+00
  0.00000000E+00  0.00000000E+00  0.00000000E+00
  0.00000000E+00  0.00000000E+00  0.00000000E+00
  0.00000000E+00  0.00000000E+00  0.00000000E+00
  0.00000000E+00  0.00000000E+00  0.00000000E+00
  0.00000000E+00  0.00000000E+00  0.00000000E+00
  0.00000000E+00  0.00000000E+00  0.00000000E+00
  0.00000000E+00  0.00000000E+00  0.00000000E+00
  0.00000000E+00  0.00000000E+00  0.00000000E+00
  0.00000000E+00  0.00000000E+00  0.00000000E+00
  0.00000000E+00  0.00000000E+00  0.00000000E+00
  0.00000000E+00  0.00000000E+00  0.00000000E+00
  0.00000000E+00  0.00000000E+00  0.00000000E+00
  0.00000000E+00  0.00000000E+00  0.00000000E+00
  0.00000000E+00  0.00000000E+00  0.00000000E+00
  0.00000000E+00  0.00000000E+00  0.00000000E+00
  0.00000000E+00  0.00000000E+00  0.00000000E+00
  0.00000000E+00  0.00000000E+00  0.00000000E+00
  0.00000000E+00  0.00000000E+00  0.00000000E+00
  0.00000000E+00  0.00000000E+00  0.00000000E+00
  0.00000000E+00  0.00000000E+00  0.00000000E+00
  0.00000000E+00  0.00000000E+00  0.00000000E+00
  0.00000000E+00  0.00000000E+00  0.00000000E+00
  0.00000000E+00  0.00000000E+00  0.00000000E+00
  0.00000000E+00  0.00000000E+00  0.00000000E+00
  0.00000000E+00  0.00000000E+00  0.00000000E+00
  0.00000000E+00  0.00000000E+00  0.00000000E+00
  0.00000000E+00  0.00000000E+00  0.00000000E+00
  0.00000000E+00  0.00000000E+00  0.00000000E+00
  0.00000000E+00  0.00000000E+00  0.00000000E+00
  0.00000000E+00  0.00000000E+00  0.00000000E+00
  0.00000000E+00  0.00000000E+00  0.00000000E+00
  0.00000000E+00  0.00000000E+00  0.00000000E+00
  0.00000000E+00  0.00000000E+00  0.00000000E+00
  0.00000000E+00  0.00000000E+00  0.00000000E+00
  0.00000000E+00  0.00000000E+00  0.00000000E+00
  0.00000000E+00  0.00000000E+00  0.00000000E+00
  0.00000000E+00  0.00000000E+00  0.00000000E+00
  0.00000000E+00  0.00000000E+00  0.00000000E+00
  0.00000000E+00  0.00000000E+00  0.00000000E+00
  0.00000000E+00  0.00000000E+00  0.00000000E+00
  0.00000000E+00  0.00000000E+00  0.00000000E+00
