 H  O Pt                                
   1.00000000000000     
     8.3458886400000001    0.0000000000000000    0.0000000000000000
     0.0000000000000000    9.6370021099999992    0.0000000000000000
     0.0000000000000000    0.0000000000000000   32.5429263600000027
   H    O    Pt
    48    24    36
Selective dynamics
Direct
  0.8298778200000001  0.3289365700000033  0.4562690699999976   T   T   T
  0.1835855200000012  0.1391595300000006  0.5340462599999967   T   T   T
  0.6374985799999990  0.4872264600000022  0.4463082400000005   T   T   T
  0.7650547900000007  0.1016419600000020  0.4404623200000017   T   T   T
  0.3555903000000029  0.1446457799999976  0.4796808299999995   T   T   T
  0.3970637299999993  0.1978159499999990  0.4348400100000021   T   T   T
  0.3548667299999977  0.2504887099999991  0.5897533500000023   T   T   T
  0.9867452200000031  0.2443955700000018  0.4591984300000007   T   T   T
  0.8172894200000016  0.1784693000000033  0.5777499200000022   T   T   T
  0.1218835299999981  0.0217625699999999  0.5026837200000003   T   T   T
  0.0132826999999978  0.5077949000000004  0.4913043299999984   T   T   T
  0.7668881399999989  0.4984978800000022  0.5573514599999996   T   T   T
  0.9295009900000011  0.0607406800000021  0.5818345300000018   T   T   T
  0.8764481999999987  0.8247583300000016  0.5416148400000012   T   T   T
  0.5679119999999998  0.9438225299999985  0.6096469299999967   T   T   T
  0.1765577899999968  0.2905085800000009  0.5830759799999967   T   T   T
  0.1072362900000030  0.3075392800000003  0.7306303499999984   T   T   T
  0.2629711299999968  0.2092913500000009  0.7222887699999987   T   T   T
  0.5767876999999970  0.5047146900000001  0.6604195999999973   T   T   T
  0.4314506699999967  0.8524524799999966  0.8144728199999989   T   T   T
  0.3185268800000003  0.3953993800000006  0.6691611999999978   T   T   T
  0.4871608600000030  0.0066438699999978  0.6710725499999981   T   T   T
  0.8607920500000006  0.1979243199999985  0.6945728500000001   T   T   T
  0.7878088300000030  0.3436817199999993  0.7032172600000024   T   T   T
  0.8868710100000001  0.7977243200000004  0.4639500600000019   T   T   T
  0.2664663199999993  0.8520303100000035  0.4619002900000027   T   T   T
  0.5849958399999977  0.0901605500000002  0.4374212000000028   T   T   T
  0.8033142499999997  0.5617220299999985  0.4373864599999990   T   T   T
  0.2467816400000018  0.3473680999999971  0.4577753800000011   T   T   T
  0.2139496599999973  0.4881918700000014  0.4349635000000021   T   T   T
  0.6982285099999999  0.6975569499999992  0.5837956599999998   T   T   T
  0.7323280999999966  0.8337330800000018  0.4386056199999970   T   T   T
  0.1564555300000023  0.8586986600000017  0.5598519400000015   T   T   T
  0.2996318200000019  0.7287696100000005  0.4315023099999991   T   T   T
  0.9838608900000025  0.7364250800000036  0.5118142299999988   T   T   T
  0.3869322400000001  0.9719351399999994  0.5995683599999992   T   T   T
  0.2057597399999977  0.8190434400000015  0.6029722800000030   T   T   T
  0.1291858200000036  0.5520116400000035  0.5256138000000021   T   T   T
  0.6793016700000010  0.4732044200000018  0.5960116199999987   T   T   T
  0.8233110500000009  0.7933596299999977  0.6048493799999974   T   T   T
  0.2195652699999968  0.6801492399999987  0.6687484899999987   T   T   T
  0.0515925899999985  0.7302350000000004  0.6843928700000035   T   T   T
  0.6220975900000028  0.1788260599999987  0.7076276399999983   T   T   T
  0.7377437099999966  0.5903731599999986  0.6625432800000013   T   T   T
  0.4684742299999982  0.9283310799999995  0.8103164799999973   T   T   T
  0.2804872299999985  0.4663638000000034  0.6275488200000012   T   T   T
  0.8164078200000020  0.7657829700000036  0.7533371800000026   T   T   T
  0.6939595799999978  0.8386587999999975  0.7260371899999996   T   T   T
  0.1991028599999964  0.0974332799999971  0.5069663100000028   T   T   T
  0.7379991199999978  0.4798426999999990  0.4301742000000033   T   T   T
  0.2091816200000025  0.4425308799999996  0.4618922299999966   T   T   T
  0.8715463599999964  0.2329225200000025  0.4602162300000003   T   T   T
  0.1918143500000014  0.2823678299999983  0.7116073600000021   T   T   T
  0.6704228999999984  0.5261054400000020  0.5703225700000019   T   T   T
  0.0171042500000027  0.5639962899999986  0.5187950600000022   T   T   T
  0.2863338299999967  0.3089545599999965  0.5737037999999970   T   T   T
  0.9197564199999988  0.1573336000000012  0.5887419100000031   T   T   T
  0.6969895900000012  0.4979623999999987  0.6577893400000008   T   T   T
  0.5191420600000001  0.9817663800000034  0.6995507700000019   T   T   T
  0.8316300899999973  0.2617083399999984  0.7170558600000021   T   T   T
  0.2302593900000005  0.7599032800000032  0.4540796799999995   T   T   T
  0.6801927699999979  0.0291629499999999  0.4370469500000027   T   T   T
  0.4263733000000016  0.2088027799999992  0.4639444700000013   T   T   T
  0.8113945799999982  0.7599055100000029  0.4438370700000007   T   T   T
  0.1395108999999977  0.7484561899999989  0.6650225500000033   T   T   T
  0.4821323899999967  0.0146945700000032  0.6132115899999988   T   T   T
  0.9632062599999998  0.8317976200000032  0.5221680499999977   T   T   T
  0.7121222199999977  0.7967409800000027  0.5947507099999996   T   T   T
  0.2379521599999990  0.8088943600000036  0.5743389499999978   T   T   T
  0.5201222800000025  0.1336089999999999  0.7175528100000008   T   T   T
  0.3428132199999965  0.4788328400000026  0.6528240399999987   T   T   T
  0.7526037100000025  0.7496649899999994  0.7285747900000032   T   T   T
  0.1666666699999979  0.0833333300000021  0.2191065600000002   F   F   F
  0.5000000000000000  0.0833333300000021  0.2191065600000002   F   F   F
  0.8333333300000021  0.0833333300000021  0.2191065600000002   F   F   F
  0.0000000000000000  0.3333333300000021  0.2191065600000002   F   F   F
  0.3333333300000021  0.3333333300000021  0.2191065600000002   F   F   F
  0.6666666699999979  0.3333333300000021  0.2191065600000002   F   F   F
  0.1666666699999979  0.5833333300000021  0.2191065600000002   F   F   F
  0.5000000000000000  0.5833333300000021  0.2191065600000002   F   F   F
  0.8333333300000021  0.5833333300000021  0.2191065600000002   F   F   F
  0.0000000000000000  0.8333333300000021  0.2191065600000002   F   F   F
  0.3333333300000021  0.8333333300000021  0.2191065600000002   F   F   F
  0.6666666699999979  0.8333333300000021  0.2191065600000002   F   F   F
  0.0000000000000000  0.1666666699999979  0.2889055500000026   F   F   F
  0.3333333300000021  0.1666666699999979  0.2889055500000026   F   F   F
  0.6666666699999979  0.1666666699999979  0.2889055500000026   F   F   F
  0.1666666699999979  0.4166666699999979  0.2889055500000026   F   F   F
  0.5000000000000000  0.4166666699999979  0.2889055500000026   F   F   F
  0.8333333300000021  0.4166666699999979  0.2889055500000026   F   F   F
  0.0000000000000000  0.6666666699999979  0.2889055500000026   F   F   F
  0.3333333300000021  0.6666666699999979  0.2889055500000026   F   F   F
  0.6666666699999979  0.6666666699999979  0.2889055500000026   F   F   F
  0.1666666699999979  0.9166666699999979  0.2889055500000026   F   F   F
  0.5000000000000000  0.9166666699999979  0.2889055500000026   F   F   F
  0.8333333300000021  0.9166666699999979  0.2889055500000026   F   F   F
  0.0098823599999989  0.0055902000000003  0.3605649900000003   T   T   T
  0.3360707300000030  0.0065574799999979  0.3661456299999983   T   T   T
  0.6689313500000011  0.0058349199999981  0.3593339099999966   T   T   T
  0.1693719100000024  0.2566327099999981  0.3628266199999999   T   T   T
  0.5000733099999977  0.2548365999999973  0.3607364100000012   T   T   T
  0.8363809299999971  0.2529976399999967  0.3613665299999980   T   T   T
  0.0001661100000021  0.5028502199999991  0.3610793400000034   T   T   T
  0.3328501599999996  0.5072006799999969  0.3629039599999970   T   T   T
  0.6576685300000022  0.5022132400000032  0.3600982399999992   T   T   T
  0.1646822800000010  0.7558406899999994  0.3615103799999986   T   T   T
  0.4942386999999968  0.7584290899999999  0.3603438499999996   T   T   T
  0.8316238399999989  0.7506748999999999  0.3623301100000020   T   T   T
 
  0.00000000E+00  0.00000000E+00  0.00000000E+00
  0.00000000E+00  0.00000000E+00  0.00000000E+00
  0.00000000E+00  0.00000000E+00  0.00000000E+00
  0.00000000E+00  0.00000000E+00  0.00000000E+00
  0.00000000E+00  0.00000000E+00  0.00000000E+00
  0.00000000E+00  0.00000000E+00  0.00000000E+00
  0.00000000E+00  0.00000000E+00  0.00000000E+00
  0.00000000E+00  0.00000000E+00  0.00000000E+00
  0.00000000E+00  0.00000000E+00  0.00000000E+00
  0.00000000E+00  0.00000000E+00  0.00000000E+00
  0.00000000E+00  0.00000000E+00  0.00000000E+00
  0.00000000E+00  0.00000000E+00  0.00000000E+00
  0.00000000E+00  0.00000000E+00  0.00000000E+00
  0.00000000E+00  0.00000000E+00  0.00000000E+00
  0.00000000E+00  0.00000000E+00  0.00000000E+00
  0.00000000E+00  0.00000000E+00  0.00000000E+00
  0.00000000E+00  0.00000000E+00  0.00000000E+00
  0.00000000E+00  0.00000000E+00  0.00000000E+00
  0.00000000E+00  0.00000000E+00  0.00000000E+00
  0.00000000E+00  0.00000000E+00  0.00000000E+00
  0.00000000E+00  0.00000000E+00  0.00000000E+00
  0.00000000E+00  0.00000000E+00  0.00000000E+00
  0.00000000E+00  0.00000000E+00  0.00000000E+00
  0.00000000E+00  0.00000000E+00  0.00000000E+00
  0.00000000E+00  0.00000000E+00  0.00000000E+00
  0.00000000E+00  0.00000000E+00  0.00000000E+00
  0.00000000E+00  0.00000000E+00  0.00000000E+00
  0.00000000E+00  0.00000000E+00  0.00000000E+00
  0.00000000E+00  0.00000000E+00  0.00000000E+00
  0.00000000E+00  0.00000000E+00  0.00000000E+00
  0.00000000E+00  0.00000000E+00  0.00000000E+00
  0.00000000E+00  0.00000000E+00  0.00000000E+00
  0.00000000E+00  0.00000000E+00  0.00000000E+00
  0.00000000E+00  0.00000000E+00  0.00000000E+00
  0.00000000E+00  0.00000000E+00  0.00000000E+00
  0.00000000E+00  0.00000000E+00  0.00000000E+00
  0.00000000E+00  0.00000000E+00  0.00000000E+00
  0.00000000E+00  0.00000000E+00  0.00000000E+00
  0.00000000E+00  0.00000000E+00  0.00000000E+00
  0.00000000E+00  0.00000000E+00  0.00000000E+00
  0.00000000E+00  0.00000000E+00  0.00000000E+00
  0.00000000E+00  0.00000000E+00  0.00000000E+00
  0.00000000E+00  0.00000000E+00  0.00000000E+00
  0.00000000E+00  0.00000000E+00  0.00000000E+00
  0.00000000E+00  0.00000000E+00  0.00000000E+00
  0.00000000E+00  0.00000000E+00  0.00000000E+00
  0.00000000E+00  0.00000000E+00  0.00000000E+00
  0.00000000E+00  0.00000000E+00  0.00000000E+00
  0.00000000E+00  0.00000000E+00  0.00000000E+00
  0.00000000E+00  0.00000000E+00  0.00000000E+00
  0.00000000E+00  0.00000000E+00  0.00000000E+00
  0.00000000E+00  0.00000000E+00  0.00000000E+00
  0.00000000E+00  0.00000000E+00  0.00000000E+00
  0.00000000E+00  0.00000000E+00  0.00000000E+00
  0.00000000E+00  0.00000000E+00  0.00000000E+00
  0.00000000E+00  0.00000000E+00  0.00000000E+00
  0.00000000E+00  0.00000000E+00  0.00000000E+00
  0.00000000E+00  0.00000000E+00  0.00000000E+00
  0.00000000E+00  0.00000000E+00  0.00000000E+00
  0.00000000E+00  0.00000000E+00  0.00000000E+00
  0.00000000E+00  0.00000000E+00  0.00000000E+00
  0.00000000E+00  0.00000000E+00  0.00000000E+00
  0.00000000E+00  0.00000000E+00  0.00000000E+00
  0.00000000E+00  0.00000000E+00  0.00000000E+00
  0.00000000E+00  0.00000000E+00  0.00000000E+00
  0.00000000E+00  0.00000000E+00  0.00000000E+00
  0.00000000E+00  0.00000000E+00  0.00000000E+00
  0.00000000E+00  0.00000000E+00  0.00000000E+00
  0.00000000E+00  0.00000000E+00  0.00000000E+00
  0.00000000E+00  0.00000000E+00  0.00000000E+00
  0.00000000E+00  0.00000000E+00  0.00000000E+00
  0.00000000E+00  0.00000000E+00  0.00000000E+00
  0.00000000E+00  0.00000000E+00  0.00000000E+00
  0.00000000E+00  0.00000000E+00  0.00000000E+00
  0.00000000E+00  0.00000000E+00  0.00000000E+00
  0.00000000E+00  0.00000000E+00  0.00000000E+00
  0.00000000E+00  0.00000000E+00  0.00000000E+00
  0.00000000E+00  0.00000000E+00  0.00000000E+00
  0.00000000E+00  0.00000000E+00  0.00000000E+00
  0.00000000E+00  0.00000000E+00  0.00000000E+00
  0.00000000E+00  0.00000000E+00  0.00000000E+00
  0.00000000E+00  0.00000000E+00  0.00000000E+00
  0.00000000E+00  0.00000000E+00  0.00000000E+00
  0.00000000E+00  0.00000000E+00  0.00000000E+00
  0.00000000E+00  0.00000000E+00  0.00000000E+00
  0.00000000E+00  0.00000000E+00  0.00000000E+00
  0.00000000E+00  0.00000000E+00  0.00000000E+00
  0.00000000E+00  0.00000000E+00  0.00000000E+00
  0.00000000E+00  0.00000000E+00  0.00000000E+00
  0.00000000E+00  0.00000000E+00  0.00000000E+00
  0.00000000E+00  0.00000000E+00  0.00000000E+00
  0.00000000E+00  0.00000000E+00  0.00000000E+00
  0.00000000E+00  0.00000000E+00  0.00000000E+00
  0.00000000E+00  0.00000000E+00  0.00000000E+00
  0.00000000E+00  0.00000000E+00  0.00000000E+00
  0.00000000E+00  0.00000000E+00  0.00000000E+00
  0.00000000E+00  0.00000000E+00  0.00000000E+00
  0.00000000E+00  0.00000000E+00  0.00000000E+00
  0.00000000E+00  0.00000000E+00  0.00000000E+00
  0.00000000E+00  0.00000000E+00  0.00000000E+00
  0.00000000E+00  0.00000000E+00  0.00000000E+00
  0.00000000E+00  0.00000000E+00  0.00000000E+00
  0.00000000E+00  0.00000000E+00  0.00000000E+00
  0.00000000E+00  0.00000000E+00  0.00000000E+00
  0.00000000E+00  0.00000000E+00  0.00000000E+00
  0.00000000E+00  0.00000000E+00  0.00000000E+00
  0.00000000E+00  0.00000000E+00  0.00000000E+00
  0.00000000E+00  0.00000000E+00  0.00000000E+00
