 H  O Pt 
 1.0000000000000000
     8.3458886400000001    0.0000000000000000    0.0000000000000000
     0.0000000000000000    9.6370021099999992    0.0000000000000000
     0.0000000000000000    0.0000000000000000   32.5429263600000027
  48  24  36
Selective dynamics
Cartesian
  6.9260678705259648  3.1699624191461622 14.8483307453556872   T   T   T
  1.5321843058364928  1.3410806842366083 17.3794281120134144   T   T   T
  5.3204921568381316  4.6954024230678302 14.5241761881812081   T   T   T
  6.3850620808385852  0.9795237829845356 14.3339328441147575   T   T   T
  2.9677170452641923  1.3939516870625956 15.6102179269936805   T   T   T
  3.3138496735630274  1.9063527275416543 14.1509664238116653   T   T   T
  2.9616782106209474  2.4139602268011777 19.1922998396133053   T   T   T
  8.2352657221723007  2.3552406237646526 14.9436606921176161   T   T   T
  6.8210064859701891  1.7199090206702228 18.8016731010558935   T   T   T
  1.0172263684300993  0.2097259330090227 16.3587992823308603   T   T   T
  0.1108559350385280  4.8936205227472387 15.9884806315391401   T   T   T
  6.4003630157767297  4.8040251213905263 18.1378475194184894   T   T   T
  7.7575117533097533  0.5853580613228347 18.9345982634952108   T   T   T
  7.3147390759284479  7.9481977664500754 17.6257318536031846   T   T   T
  4.7397303093196799  9.0956197130755374 19.8396951485900779   T   T   T
  1.4735316538645056  2.7996317984331038 18.9749986794248358   T   T   T
  0.8949821345067456  2.9637566902678807 23.7768496764310271   T   T   T
  2.1947277665149634  2.0169411815547482 23.5053902527649790   T   T   T
  4.8138059131217279  4.8639365324779957 21.4919864095006581   T   T   T
  3.6008392454733888  8.2150863484347312 26.5053290034815383   T   T   T
  2.6583898693266432  3.8104646593526916 21.7764636545692341   T   T   T
  4.0657902873266298  0.0640269892085657 21.8386645768674192   T   T   T
  7.1840745914973123  1.9073970894603149 22.6034331092053300   T   T   T
  6.5749647647886915  3.3120614608084291 22.8847475072609754   T   T   T
  7.4017266875043264  7.6876709550383149 15.0982926372975825   T   T   T
  2.2238982330306047  8.2110178952539528 15.0315871231326454   T   T   T
  4.8823101355032579  0.8688774105887604 14.2349658999028339   T   T   T
  6.7043712734251200  5.4133163883434827 14.2338353586410857   T   T   T
  2.0596120858365694  3.3475871126466910 14.8973504807610180   T   T   T
  1.7856000369258624  4.7047060812748454 14.1549851497878620   T   T   T
  5.8273373897331258  6.7223577989951631 18.9984191726675995   T   T   T
  6.1119287705427841  8.0346874511367989 14.2735103927421427   T   T   T
  1.3057604304921793  8.2752807982741707 18.2192204559231428   T   T   T
  2.5006938027205248  7.0231542692738760 14.0423478984998926   T   T   T
  8.2111934251912899  7.0969300498169181 16.6559327968901059   T   T   T
  3.2292933862657534  9.3665409949631453 19.5117089872659726   T   T   T
  1.7172478766353536  7.8931233594616570 19.6224825051613045   T   T   T
  1.0781704675870849  5.3197373394245604 17.1050111871997714   T   T   T
  5.6693760907860282  4.5602719940013259 19.3959622593643033   T   T   T
  6.8712623393814720  7.6456084282988188 19.6835688322316571   T   T   T
  1.8324672926315329  6.5545996609948958 21.7630328634311994   T   T   T
  0.4305860107891776  7.0372762357958489 22.2721467697190576   T   T   T
  5.1919572093523776  1.7233471175429866 23.0282741788205918   T   T   T
  6.1571268485204547  5.6894273886073670 21.5610971713528627   T   T   T
  3.9098337542897470  8.9463285767385781 26.3700695369344160   T   T   T
  2.3409151865220670  4.4943489246276176 20.4222750365648977   T   T   T
  6.8136487505451653  7.3798520976920656 24.5157963729900672   T   T   T
  5.7917093753411715  8.0821566251700681 23.6273748087913305   T   T   T
  1.6616902974655103  0.9389647249442207 16.4981672933309333   T   T   T
  6.1592584719379966  4.6242451123680963 13.9991273125719129   T   T   T
  1.7458065060547969  4.2646710243001564 15.0313248271461841   T   T   T
  7.2738288651573502  2.2446748167065169 14.9767828825668250   T   T   T
  1.6008612046539841  2.7211793735061209 23.1577859137140116   T   T   T
  5.5952748651058561  5.0700792353624786 18.5599653969559455   T   T   T
  0.1427501657707200  5.4352334367621706 16.8831094335117839   T   T   T
  2.3897102590446915  2.9773957466141212 18.6700005158521698   T   T   T
  7.6761846572450692  1.5162242351738957 19.1593846221757502   T   T   T
  5.8169975013792579  4.7988646995006636 21.4063900520130055   T   T   T
  4.3327018211001977  9.4612846755870610 22.7654291931912987   T   T   T
  6.9406921208131775  2.5220838247845969 23.3350960479864717   T   T   T
  1.9217192272543298  7.3231895127559197 14.7770815878123649   T   T   T
  5.6768131121531331  0.2810434106838245 14.2227867097126026   T   T   T
  3.5584640808693120  2.0122328314338658 15.0981107223392303   T   T   T
  6.7718088077795713  7.3232110032706252 14.4437570848481656   T   T   T
  1.1643424354661760  7.2128738822725600 21.6417798723894208   T   T   T
  4.0238232366770497  0.1416116020955427 19.9556996164685145   T   T   T
  8.0388121833108865  8.0160354190329777 16.9928763986948006   T   T   T
  5.9432927461895808  7.6781945053834679 19.3549285580877175   T   T   T
  1.9859222290074623  7.7953166540870988 18.6906701555297232   T   T   T
  4.3408826280629000  1.2875902149149900 23.3512682552410737   T   T   T
  2.8610809584398207  4.6145130894172919 21.2448046597576976   T   T   T
  6.2811467537108552  7.2245230904231281 23.7099557387224671   T   T   T
  1.3909814678196286  0.8030834770433262  7.1303686470729222   F   F   F
  4.1729443200000000  0.8030834770433262  7.1303686470729222   F   F   F
  6.9549071721803708  0.8030834770433262  7.1303686470729222   F   F   F
  0.0000000000000000  3.2123340045433260  7.1303686470729222   F   F   F
  2.7819628521803712  3.2123340045433260  7.1303686470729222   F   F   F
  5.5639257878196293  3.2123340045433260  7.1303686470729222   F   F   F
  1.3909814678196286  5.6215845320433253  7.1303686470729222   F   F   F
  4.1729443200000000  5.6215845320433253  7.1303686470729222   F   F   F
  6.9549071721803708  5.6215845320433253  7.1303686470729222   F   F   F
  0.0000000000000000  8.0308350595433247  7.1303686470729222   F   F   F
  2.7819628521803712  8.0308350595433247  7.1303686470729222   F   F   F
  5.5639257878196293  8.0308350595433247  7.1303686470729222   F   F   F
  0.0000000000000000  1.6061670504566734  9.4018320386452991   F   F   F
  2.7819628521803712  1.6061670504566734  9.4018320386452991   F   F   F
  5.5639257878196293  1.6061670504566734  9.4018320386452991   F   F   F
  1.3909814678196286  4.0154175779566739  9.4018320386452991   F   F   F
  4.1729443200000000  4.0154175779566739  9.4018320386452991   F   F   F
  6.9549071721803708  4.0154175779566739  9.4018320386452991   F   F   F
  0.0000000000000000  6.4246681054566732  9.4018320386452991   F   F   F
  2.7819628521803712  6.4246681054566732  9.4018320386452991   F   F   F
  5.5639257878196293  6.4246681054566732  9.4018320386452991   F   F   F
  1.3909814678196286  8.8339186329566726  9.4018320386452991   F   F   F
  4.1729443200000000  8.8339186329566726  9.4018320386452991   F   F   F
  6.9549071721803708  8.8339186329566726  9.4018320386452991   F   F   F
  0.0824770760603904  0.0538727691953220 11.7338399175641364   T   T   T
  2.8048088877435071  0.0631944485962828 11.9154502741258081   T   T   T
  5.5828265549048641  0.0562311363516812 11.6937769717808671   T   T   T
  1.4135590996041023  2.4731699677650179 11.8074399761077036   T   T   T
  4.1735561570961988  2.4558608519052259 11.7394184260007695   T   T   T
  6.9803421023996357  2.4381387905050205 11.7599243747587323   T   T   T
  0.0013863355619904  4.8459686311539638 11.7505783717374044   T   T   T
  2.7779303691661825  4.8878940233534340 11.8099568460323869   T   T   T
  5.4888283134124993  4.8398300535499361 11.7186505066856075   T   T   T
  1.3744199698612991  7.2840383243538547 11.7646056747156180   T   T   T
  4.1248611517783678  7.3089827406153791 11.7266433748288872   T   T   T
  6.9406399590091779  7.2342555952240390 11.7912820877407007   T   T   T
