 H  O Pt                                
   1.00000000000000     
     8.3458886423026613    0.0000000000000000    0.0000000000000000
     0.0000000000000000    9.6370021085201625    0.0000000000000000
     0.0000000000000000    0.0000000000000000   32.5429263608291137
   H    O    Pt
    49    25    36
Selective dynamics
Direct
  0.7507412924938057  0.7058885571385439  0.5507633368056550   T   T   T
  0.0611116703179638  0.8259659275832177  0.4378545451151191   T   T   T
  0.7075160238155581  0.2605988061553278  0.4526150984113803   T   T   T
  0.8435806168358699  0.1574270437447911  0.4578264672358024   T   T   T
  0.8883607055161761  0.5139875925838547  0.5060265759016747   T   T   T
  0.9921728237053543  0.6125744134764843  0.4790669947211679   T   T   T
  0.8157153550449189  0.9604138153236839  0.4492599940081116   T   T   T
  0.9151922283832384  0.9161152849959855  0.4832574365456178   T   T   T
  0.4085544815874530  0.9545710582095309  0.5450469968463242   T   T   T
  0.3654885798781794  0.8659644913952153  0.5803472353433600   T   T   T
  0.9321089088867556  0.0561640800985066  0.5477576608235266   T   T   T
  0.7555509099554111  0.5373237148018936  0.4533924148340501   T   T   T
  0.6419249211491057  0.3534754858378832  0.6940640076221836   T   T   T
  0.0375141213911821  0.8583952251274913  0.5749414993745904   T   T   T
  0.3266468815038529  0.3318322799648012  0.6403339934405851   T   T   T
  0.3617135542292503  0.4066233056230368  0.5988143646750103   T   T   T
  0.9768905315887494  0.5931783812603164  0.6252405797068767   T   T   T
  0.1395897368647278  0.5102988276240159  0.6275757740341936   T   T   T
  0.1804391278546567  0.1802979089629457  0.6727310820214093   T   T   T
  0.3254093604842347  0.1355737348913808  0.6980979209673283   T   T   T
  0.4212448803780029  0.4746448622899259  0.5117592648969898   T   T   T
  0.5460946765560771  0.4899962914603455  0.5437516492841646   T   T   T
  0.7386321870010752  0.5820548529955402  0.6616070487255717   T   T   T
  0.8299792656795324  0.8289684168115514  0.6965766407261975   T   T   T
  0.1810879804567165  0.8969420052321482  0.4645098725762375   T   T   T
  0.5603114851119856  0.7338622352637747  0.5551528215845419   T   T   T
  0.1521987320878561  0.1237006884548632  0.4826455781064452   T   T   T
  0.3243771538991235  0.1108791567284575  0.4640665046386223   T   T   T
  0.2814907520897278  0.5274702648170883  0.4557995509357892   T   T   T
  0.2995769954248651  0.6759723561962883  0.4641191601183077   T   T   T
  0.0994987423089304  0.3257421553670463  0.4413572059840342   T   T   T
  0.1082390849212913  0.3631018512871363  0.4861198838169330   T   T   T
  0.5399611943031301  0.0599505512356963  0.6730435722219660   T   T   T
  0.6557489551044130  0.0494540018381326  0.7108638473584942   T   T   T
  0.5431940735780355  0.5513870258622291  0.4475969731753706   T   T   T
  0.7857871132872570  0.1437836959719269  0.5634300065696194   T   T   T
  0.0636075163996929  0.8580236964174950  0.5287664995225118   T   T   T
  0.5324613554608596  0.4416091283865321  0.6633752417776849   T   T   T
  0.9889879159132088  0.3175933708458988  0.5546030692627223   T   T   T
  0.0329231100748442  0.4655072519112050  0.5643887944245496   T   T   T
  0.1995790916030101  0.9281037524866161  0.6584717020193972   T   T   T
  0.3433633924904049  0.8150211181366114  0.6527955268758430   T   T   T
  0.9340046003253191  0.0534048255345989  0.6712997048198988   T   T   T
  0.9740165149550000  0.0764848518219361  0.6247640815013569   T   T   T
  0.6055268131040473  0.0501235045747915  0.5045190893967528   T   T   T
  0.5166642487039175  0.1974698591841326  0.5132079350528070   T   T   T
  0.8016903008025055  0.8767058460917588  0.7457220018169606   T   T   T
  0.7200985353169543  0.6614361743407694  0.6207711212091602   T   T   T
  0.3976151162626322  0.3115360470796180  0.4467493604180852   T   T   T
  0.6492281559901641  0.6625219864550014  0.5596365148137027   T   T   T
  0.8244081475144309  0.2515554934510218  0.4478532970862767   T   T   T
  0.8957963481951710  0.5602625421494329  0.4804930565368145   T   T   T
  0.8327040871644460  0.9833932443504034  0.4784011933185058   T   T   T
  0.3848654255664972  0.8545647979908699  0.5515480574656895   T   T   T
  0.6493902643008572  0.5087389640604898  0.4372573123649070   T   T   T
  0.6142524624054436  0.4453097289237161  0.6849001721732582   T   T   T
  0.3642832136578791  0.4221860613932054  0.6285081090315217   T   T   T
  0.0630059061005018  0.5532809376410852  0.6093948094740294   T   T   T
  0.2816219381577189  0.2163270989347647  0.6849699529669357   T   T   T
  0.4675744106999753  0.4150839249057416  0.5345907948299864   T   T   T
  0.8352965609161404  0.9005102011109392  0.7178186275383640   T   T   T
  0.1108368441257419  0.8094805875568560  0.4650130734013048   T   T   T
  0.2422655124532327  0.0601182798191056  0.4789252853532500   T   T   T
  0.3616250450655944  0.5908840192519247  0.4685597698850753   T   T   T
  0.1735901945646269  0.3629753855750065  0.4621001561791805   T   T   T
  0.5805801555739908  0.1106620245004754  0.6972831119462293   T   T   T
  0.9046520637494766  0.1407121270635623  0.5661123049132544   T   T   T
  0.9806165108369346  0.8489742134309959  0.5480012241584080   T   T   T
  0.0573984434350884  0.3881779069923165  0.5450806353839027   T   T   T
  0.3091319993796310  0.9117071972555881  0.6478686812902419   T   T   T
  0.0242345452780022  0.0493155537117270  0.6504521025152052   T   T   T
  0.5687313522193346  0.1152390180361701  0.5267540387398848   T   T   T
  0.7761613728186486  0.6637031827137355  0.6472906562144863   T   T   T
  0.4712840602976434  0.2358392791966878  0.4406068398322327   T   T   T
  0.1666666666666643  0.0833333333333357  0.2295213891678003   F   F   F
  0.5000000000000000  0.0833333333333357  0.2295213891678003   F   F   F
  0.8333333333333357  0.0833333333333357  0.2295213891678003   F   F   F
  0.0000000000000000  0.3333333333333357  0.2295213891678003   F   F   F
  0.3333333333333357  0.3333333333333357  0.2295213891678003   F   F   F
  0.6666666666666643  0.3333333333333357  0.2295213891678003   F   F   F
  0.1666666666666643  0.5833333333333357  0.2295213891678003   F   F   F
  0.5000000000000000  0.5833333333333357  0.2295213891678003   F   F   F
  0.8333333333333357  0.5833333333333357  0.2295213891678003   F   F   F
  0.0000000000000000  0.8333333333333357  0.2295213891678003   F   F   F
  0.3333333333333357  0.8333333333333357  0.2295213891678003   F   F   F
  0.6666666666666643  0.8333333333333357  0.2295213891678003   F   F   F
  0.0000000000000000  0.1666666666666643  0.2993203726774283   F   F   F
  0.3333333333333357  0.1666666666666643  0.2993203726774283   F   F   F
  0.6666666666666643  0.1666666666666643  0.2993203726774283   F   F   F
  0.1666666666666643  0.4166666666666643  0.2993203726774283   F   F   F
  0.5000000000000000  0.4166666666666643  0.2993203726774283   F   F   F
  0.8333333333333357  0.4166666666666643  0.2993203726774283   F   F   F
  0.0000000000000000  0.6666666666666643  0.2993203726774283   F   F   F
  0.3333333333333357  0.6666666666666643  0.2993203726774283   F   F   F
  0.6666666666666643  0.6666666666666643  0.2993203726774283   F   F   F
  0.1666666666666643  0.9166666666666643  0.2993203726774283   F   F   F
  0.5000000000000000  0.9166666666666643  0.2993203726774283   F   F   F
  0.8333333333333357  0.9166666666666643  0.2993203726774283   F   F   F
  0.9783380558545186  0.9977197383579364  0.3687492101716813   T   T   T
  0.3187371820034434  0.0015451690572933  0.3725643608401362   T   T   T
  0.6551384833129690  0.0002348993607577  0.3763993795089601   T   T   T
  0.1330970901004596  0.2322357614996378  0.3735888577339550   T   T   T
  0.4773602025358028  0.2427608346815704  0.3755639448009944   T   T   T
  0.8072123879213883  0.2377369726729820  0.3711269052168749   T   T   T
  0.0055282369268278  0.4964279514052219  0.3681911996462633   T   T   T
  0.3311685142717051  0.4910195115049766  0.3661697924097941   T   T   T
  0.6470049679425663  0.5025866331846528  0.3718414031156528   T   T   T
  0.1531937098796079  0.7528469529798514  0.3673234110786595   T   T   T
  0.4904171820025878  0.7608716333289219  0.3730421913378009   T   T   T
  0.8178099872159166  0.7566217413009521  0.3695445833731256   T   T   T
 
 -0.22209919E-01  0.85613415E-02  0.13343897E-02
 -0.13812797E-01  0.26545412E-02 -0.11219459E-01
 -0.93517894E-02  0.18157829E-01  0.11376710E-01
  0.11339210E-01 -0.45974345E-02  0.11134474E-01
  0.36938360E-02 -0.16898658E-01 -0.34434888E-02
 -0.70498018E-02 -0.16433183E-01  0.31883481E-01
  0.16085370E-02 -0.33350335E-02 -0.87300391E-02
  0.49837388E-02  0.47397690E-02 -0.18297810E-02
  0.10172910E-01  0.15381352E-01 -0.55820366E-03
 -0.90577978E-02  0.19586008E-01  0.51459984E-02
  0.21533235E-01  0.96966570E-02 -0.19858701E-01
  0.14281999E-01 -0.18303864E-01 -0.13843507E-01
  0.14521463E-01  0.44883818E-02 -0.35968281E-03
 -0.23608547E-01 -0.12014069E-01 -0.14629138E-02
 -0.15914185E-01 -0.18958106E-02 -0.25877974E-01
 -0.30154288E-02  0.14158797E-01 -0.31174544E-02
  0.33856672E-02  0.94201343E-02 -0.59793943E-02
 -0.53621473E-02  0.66521027E-02  0.14108006E-01
  0.29813344E-02  0.27319339E-01  0.20921590E-01
  0.28579821E-01  0.17292490E-01  0.20024493E-01
  0.29632232E-02 -0.25187552E-01  0.26802047E-01
 -0.16492675E-02  0.10369822E-01 -0.15257589E-02
 -0.20387716E-02  0.18715265E-02 -0.32486774E-02
  0.10680573E-01 -0.30420308E-02  0.10970828E-01
  0.14266532E-02 -0.15957285E-02 -0.10522406E-02
 -0.29977071E-01 -0.20976398E-01 -0.18207712E-01
  0.55189993E-02  0.16505837E-01 -0.19655460E-01
  0.28252787E-01 -0.75605565E-02  0.19716792E-01
  0.11597218E-01 -0.25128379E-01 -0.13681578E-02
  0.15741034E-01  0.86601832E-02  0.31805895E-01
  0.42880309E-02 -0.16622988E-01 -0.54599490E-02
  0.39784424E-02 -0.54490758E-03  0.20363859E-01
 -0.17365208E-02 -0.53433679E-02  0.23237641E-03
 -0.17088568E-01 -0.14587476E-01 -0.10828171E-01
 -0.66958086E-02  0.27942393E-01  0.25365967E-01
 -0.78535693E-02 -0.20114641E-01  0.14080023E-01
 -0.18929199E-01 -0.74499113E-05 -0.78840382E-02
 -0.57537217E-02 -0.37480704E-01 -0.19232521E-01
  0.90822838E-02  0.12921812E-01  0.26401059E-03
  0.35117076E-02  0.29558409E-02  0.11299399E-01
  0.79180515E-02  0.10896908E-01 -0.89914238E-03
 -0.26938269E-01  0.50589325E-02 -0.17793507E-01
 -0.18610437E-01  0.16925786E-01 -0.10375617E-03
  0.86863079E-02  0.12194625E-01  0.26759390E-02
 -0.87566932E-02 -0.20269687E-02  0.46673672E-02
  0.64606564E-03 -0.95341396E-02  0.22488594E-01
  0.14044252E-01 -0.51942845E-02 -0.11337073E-01
  0.12229792E-01 -0.24219547E-01  0.16353368E-01
 -0.20285189E-01  0.31194633E-02  0.60899618E-02
  0.16458775E-02 -0.42808837E-03  0.42534104E-03
  0.13038132E-02 -0.54262300E-02  0.56724707E-03
 -0.65528934E-02  0.93335877E-03  0.69964197E-02
  0.23628742E-02 -0.78397199E-03 -0.31216996E-02
 -0.39202676E-02 -0.27057446E-02  0.15235757E-03
  0.34708959E-02 -0.59159119E-03  0.13110853E-02
  0.66657159E-02 -0.76212665E-03 -0.25459183E-03
 -0.41610014E-02 -0.29218796E-03 -0.45362802E-02
 -0.16205926E-03 -0.41601605E-02 -0.71318137E-03
 -0.15232876E-02  0.20623418E-02 -0.16852174E-02
  0.99711382E-02 -0.23953536E-02 -0.64622157E-02
  0.83439765E-02  0.49455679E-02 -0.14944648E-02
  0.26024077E-02 -0.17469271E-02 -0.82538331E-02
  0.41629787E-02 -0.53633639E-02  0.29966967E-02
 -0.30456632E-03  0.76892050E-02  0.20058997E-02
 -0.20759415E-03  0.11938845E-02 -0.39963500E-04
  0.36967521E-02 -0.22620511E-02  0.43662729E-03
 -0.28671411E-02 -0.40492909E-03 -0.22999785E-02
  0.10078780E-02  0.31223648E-02  0.48691846E-02
  0.99222461E-02 -0.61976381E-02  0.44921308E-02
 -0.33749097E-02 -0.31323821E-02 -0.28373482E-03
  0.35423860E-02  0.93112588E-02 -0.22760478E-03
 -0.54304645E-03 -0.48834318E-02 -0.10316528E-01
  0.40946931E-02  0.21163595E-03 -0.16312983E-02
  0.75989534E-03 -0.50747168E-03 -0.39204485E-02
  0.00000000E+00  0.00000000E+00  0.00000000E+00
  0.00000000E+00  0.00000000E+00  0.00000000E+00
  0.00000000E+00  0.00000000E+00  0.00000000E+00
  0.00000000E+00  0.00000000E+00  0.00000000E+00
  0.00000000E+00  0.00000000E+00  0.00000000E+00
  0.00000000E+00  0.00000000E+00  0.00000000E+00
  0.00000000E+00  0.00000000E+00  0.00000000E+00
  0.00000000E+00  0.00000000E+00  0.00000000E+00
  0.00000000E+00  0.00000000E+00  0.00000000E+00
  0.00000000E+00  0.00000000E+00  0.00000000E+00
  0.00000000E+00  0.00000000E+00  0.00000000E+00
  0.00000000E+00  0.00000000E+00  0.00000000E+00
  0.00000000E+00  0.00000000E+00  0.00000000E+00
  0.00000000E+00  0.00000000E+00  0.00000000E+00
  0.00000000E+00  0.00000000E+00  0.00000000E+00
  0.00000000E+00  0.00000000E+00  0.00000000E+00
  0.00000000E+00  0.00000000E+00  0.00000000E+00
  0.00000000E+00  0.00000000E+00  0.00000000E+00
  0.00000000E+00  0.00000000E+00  0.00000000E+00
  0.00000000E+00  0.00000000E+00  0.00000000E+00
  0.00000000E+00  0.00000000E+00  0.00000000E+00
  0.00000000E+00  0.00000000E+00  0.00000000E+00
  0.00000000E+00  0.00000000E+00  0.00000000E+00
  0.00000000E+00  0.00000000E+00  0.00000000E+00
 -0.19014655E-03 -0.86804818E-03  0.23793815E-02
 -0.12618090E-02  0.15442289E-02  0.72540722E-04
 -0.10173025E-03 -0.21620131E-02  0.18431651E-03
 -0.85193633E-03 -0.53311057E-03  0.11137595E-02
 -0.43163336E-03  0.94723132E-03  0.56177157E-03
  0.30864910E-02 -0.16702194E-03  0.94052126E-03
 -0.18735553E-03 -0.13533982E-02 -0.58199326E-03
  0.72733268E-03 -0.25812191E-03  0.11922799E-02
  0.97580813E-03  0.12946851E-02 -0.12709169E-02
  0.12080886E-02  0.10247881E-02  0.76029266E-04
 -0.42113126E-04 -0.15823280E-02 -0.19500492E-03
 -0.16881176E-02  0.12190232E-02 -0.17539000E-02
 
           1
   1.00000000000000     
  0.12481119E+03 -0.95126906E+00  0.00000000E+00  0.00000000E+00
  0.74808011E+00  0.70677694E+00  0.55080434E+00
  0.59456628E-01  0.82624138E+00  0.43750979E+00
  0.70639550E+00  0.26248298E+00  0.45296469E+00
  0.84493927E+00  0.15694998E+00  0.45816861E+00
  0.88880330E+00  0.51223407E+00  0.50592076E+00
  0.99132812E+00  0.61086920E+00  0.48004673E+00
  0.81590809E+00  0.96006775E+00  0.44899173E+00
  0.91578938E+00  0.91660712E+00  0.48320121E+00
  0.40977339E+00  0.95616713E+00  0.54502984E+00
  0.36440328E+00  0.86799687E+00  0.58050536E+00
  0.93468901E+00  0.57170270E-01  0.54714743E+00
  0.75726217E+00  0.53542438E+00  0.45296702E+00
  0.64366488E+00  0.35394123E+00  0.69405296E+00
  0.34685358E-01  0.85714856E+00  0.57489655E+00
  0.32474005E+00  0.33163556E+00  0.63953880E+00
  0.36135225E+00  0.40809252E+00  0.59871857E+00
  0.97729620E+00  0.59415588E+00  0.62505684E+00
  0.13894725E+00  0.51098909E+00  0.62800929E+00
  0.18079635E+00  0.18313275E+00  0.67337397E+00
  0.32883378E+00  0.13736812E+00  0.69871325E+00
  0.42159993E+00  0.47203123E+00  0.51258286E+00
  0.54589706E+00  0.49107233E+00  0.54370476E+00
  0.73838790E+00  0.58224906E+00  0.66150722E+00
  0.83125901E+00  0.82865276E+00  0.69691376E+00
  0.18125892E+00  0.89677642E+00  0.46447754E+00
  0.55671965E+00  0.73168558E+00  0.55459332E+00
  0.15286002E+00  0.12541344E+00  0.48204159E+00
  0.32776239E+00  0.11009462E+00  0.46467237E+00
  0.28288032E+00  0.52486278E+00  0.45575751E+00
  0.30146308E+00  0.67687099E+00  0.46509651E+00
  0.10001253E+00  0.32401724E+00  0.44118943E+00
  0.10871578E+00  0.36304531E+00  0.48674564E+00
  0.53975313E+00  0.59396088E-01  0.67305071E+00
  0.65370141E+00  0.47940307E-01  0.71053111E+00
  0.54239179E+00  0.55428652E+00  0.44837643E+00
  0.78484610E+00  0.14169647E+00  0.56386267E+00
  0.61339430E-01  0.85802292E+00  0.52852423E+00
  0.53177195E+00  0.43771988E+00  0.66278425E+00
  0.99007615E+00  0.31893422E+00  0.55461118E+00
  0.33343881E-01  0.46581397E+00  0.56473601E+00
  0.20052783E+00  0.92923449E+00  0.65844407E+00
  0.34013566E+00  0.81554607E+00  0.65224876E+00
  0.93177471E+00  0.55161159E-01  0.67129652E+00
  0.97505730E+00  0.77750248E-01  0.62484631E+00
  0.60447759E+00  0.49913173E-01  0.50466251E+00
  0.51674166E+00  0.19648053E+00  0.51389898E+00
  0.80337308E+00  0.87616685E+00  0.74537363E+00
  0.72156390E+00  0.65892299E+00  0.62127364E+00
  0.39518456E+00  0.31185974E+00  0.44693650E+00
  0.64942536E+00  0.66247757E+00  0.55964958E+00
  0.82456437E+00  0.25099243E+00  0.44787073E+00
  0.89501118E+00  0.56035939E+00  0.48070805E+00
  0.83298721E+00  0.98331189E+00  0.47830527E+00
  0.38439570E+00  0.85428403E+00  0.55155274E+00
  0.64980615E+00  0.50867758E+00  0.43729760E+00
  0.61505114E+00  0.44523065E+00  0.68489235E+00
  0.36378464E+00  0.42215574E+00  0.62836872E+00
  0.62986488E-01  0.55284925E+00  0.60937289E+00
  0.28143942E+00  0.21654110E+00  0.68491817E+00
  0.46876915E+00  0.41483537E+00  0.53439222E+00
  0.83629633E+00  0.90102339E+00  0.71777270E+00
  0.11114866E+00  0.80929931E+00  0.46475944E+00
  0.24276432E+00  0.59561741E-01  0.47901737E+00
  0.36158855E+00  0.59168190E+00  0.46862141E+00
  0.17356532E+00  0.36309927E+00  0.46209893E+00
  0.58102310E+00  0.11042730E+00  0.69729653E+00
  0.90430852E+00  0.14067011E+00  0.56604163E+00
  0.98073727E+00  0.84929821E+00  0.54815085E+00
  0.58587322E-01  0.38753480E+00  0.54521867E+00
  0.30872762E+00  0.91138216E+00  0.64785996E+00
  0.24658992E-01  0.50281752E-01  0.65044511E+00
  0.56866628E+00  0.11473228E+00  0.52643703E+00
  0.77665200E+00  0.66372514E+00  0.64724053E+00
  0.47137511E+00  0.23578662E+00  0.44048637E+00
  0.16666667E+00  0.83333333E-01  0.22952139E+00
  0.50000000E+00  0.83333333E-01  0.22952139E+00
  0.83333333E+00  0.83333333E-01  0.22952139E+00
  0.00000000E+00  0.33333333E+00  0.22952139E+00
  0.33333333E+00  0.33333333E+00  0.22952139E+00
  0.66666667E+00  0.33333333E+00  0.22952139E+00
  0.16666667E+00  0.58333333E+00  0.22952139E+00
  0.50000000E+00  0.58333333E+00  0.22952139E+00
  0.83333333E+00  0.58333333E+00  0.22952139E+00
  0.00000000E+00  0.83333333E+00  0.22952139E+00
  0.33333333E+00  0.83333333E+00  0.22952139E+00
  0.66666667E+00  0.83333333E+00  0.22952139E+00
  0.00000000E+00  0.16666667E+00  0.29932037E+00
  0.33333333E+00  0.16666667E+00  0.29932037E+00
  0.66666667E+00  0.16666667E+00  0.29932037E+00
  0.16666667E+00  0.41666667E+00  0.29932037E+00
  0.50000000E+00  0.41666667E+00  0.29932037E+00
  0.83333333E+00  0.41666667E+00  0.29932037E+00
  0.00000000E+00  0.66666667E+00  0.29932037E+00
  0.33333333E+00  0.66666667E+00  0.29932037E+00
  0.66666667E+00  0.66666667E+00  0.29932037E+00
  0.16666667E+00  0.91666667E+00  0.29932037E+00
  0.50000000E+00  0.91666667E+00  0.29932037E+00
  0.83333333E+00  0.91666667E+00  0.29932037E+00
  0.97831527E+00  0.99762966E+00  0.36882233E+00
  0.31858599E+00  0.17054086E-02  0.37256659E+00
  0.65512629E+00  0.10554377E-04  0.37640504E+00
  0.13299501E+00  0.23218044E+00  0.37362308E+00
  0.47730848E+00  0.24285913E+00  0.37558121E+00
  0.80758221E+00  0.23771964E+00  0.37115581E+00
  0.55057881E-02  0.49628751E+00  0.36817332E+00
  0.33125566E+00  0.49099273E+00  0.36620643E+00
  0.64712189E+00  0.50272098E+00  0.37180235E+00
  0.15333846E+00  0.75295329E+00  0.36732575E+00
  0.49041214E+00  0.76070744E+00  0.37303620E+00
  0.81760772E+00  0.75674824E+00  0.36949069E+00
 -0.23442945E-02  0.89309983E-03  0.38216867E-04
 -0.15680704E-02  0.55407810E-03 -0.31560916E-03
 -0.10706150E-02  0.16994108E-02  0.38169944E-03
  0.11587824E-02 -0.26132620E-03  0.31638507E-03
  0.25080432E-03 -0.13050608E-02 -0.31700394E-03
 -0.13773923E-02 -0.20331396E-02  0.97694423E-03
  0.50212790E-03 -0.42085656E-03 -0.21830490E-03
  0.11223804E-03  0.81191755E-03 -0.15672665E-03
  0.11595646E-02  0.20044950E-02  0.40615393E-04
 -0.84303363E-03  0.21411047E-02 -0.42171453E-04
  0.28574409E-02  0.26783807E-03 -0.80553178E-03
  0.23036194E-02 -0.18966233E-02 -0.33146881E-03
  0.18887327E-02  0.79669894E-03  0.12369092E-04
 -0.24785472E-02 -0.10926320E-02  0.92254992E-04
 -0.21726660E-02 -0.49669372E-03 -0.81067523E-03
 -0.49240157E-03  0.13843141E-02 -0.52393171E-04
  0.80642741E-03  0.82716535E-03 -0.27597594E-03
 -0.96780562E-03  0.81537112E-03  0.38623758E-03
  0.98393598E-04  0.27560635E-02  0.60012052E-03
  0.30569168E-02  0.19741097E-02  0.56733112E-03
  0.38249113E-03 -0.21002674E-02  0.68282188E-03
  0.10515452E-03  0.16750426E-02 -0.51821149E-04
  0.47640208E-04  0.66108742E-03 -0.19648532E-03
  0.15255977E-02 -0.20983297E-04  0.24673375E-03
  0.32666462E-03  0.81364011E-04 -0.11998374E-03
 -0.41251657E-02 -0.18643317E-02 -0.56278377E-03
  0.42968707E-03  0.17167904E-02 -0.57538541E-03
  0.30643059E-02 -0.10939536E-02  0.68686950E-03
  0.11644124E-02 -0.23313045E-02 -0.87277004E-04
  0.16839727E-02  0.56794329E-03  0.93492563E-03
  0.44244895E-03 -0.18418190E-02 -0.11536453E-03
  0.80624081E-03 -0.24950166E-03  0.36056044E-03
 -0.35390394E-03 -0.63250031E-03 -0.68423686E-04
 -0.22307467E-02 -0.12416995E-02 -0.31955356E-03
 -0.14562748E-02  0.29656401E-02  0.80120181E-03
 -0.12311793E-02 -0.20965841E-02  0.45224970E-03
 -0.32749600E-02  0.94936511E-04 -0.31890186E-04
 -0.53779946E-03 -0.36089495E-02 -0.57469227E-03
  0.17164673E-02  0.23010481E-02 -0.68969466E-04
  0.35627131E-04  0.37665771E-03  0.32752537E-03
  0.74466702E-03  0.12723019E-02  0.22518148E-04
 -0.28824738E-02  0.22356905E-03 -0.57021942E-03
 -0.29023714E-02  0.18607144E-02  0.13392295E-03
  0.11306105E-02  0.11272024E-02  0.18775338E-03
 -0.87401376E-03 -0.74210144E-03  0.25018857E-04
 -0.27542359E-03 -0.55249883E-03  0.60950981E-03
  0.16313107E-02 -0.17014745E-03 -0.23348418E-03
  0.14923288E-02 -0.25456741E-02  0.50668933E-03
 -0.23242126E-02  0.25858719E-03  0.16683357E-03
  0.20915925E-03 -0.70035217E-04  0.13465187E-04
  0.17165539E-03 -0.57058205E-03  0.19751808E-04
 -0.73890346E-03  0.87421791E-04  0.22669874E-03
  0.30618293E-03 -0.90661771E-04 -0.87615403E-04
 -0.48093787E-03 -0.31576132E-03  0.12213682E-04
  0.42362785E-03 -0.71295380E-04  0.36265507E-04
  0.77561945E-03 -0.11485452E-03 -0.99560296E-05
 -0.47575684E-03 -0.74582938E-05 -0.13973085E-03
 -0.19383899E-04 -0.44347926E-03 -0.14761532E-04
 -0.12852852E-03  0.20071839E-03 -0.45160012E-04
  0.11691900E-02 -0.31535029E-03 -0.19128406E-03
  0.98661761E-03  0.47406762E-03 -0.46054857E-04
  0.29115441E-03 -0.21257088E-03 -0.24816225E-03
  0.52605968E-03 -0.53229903E-03  0.87070142E-04
 -0.13476520E-04  0.79751118E-03  0.68299723E-04
 -0.35574285E-04  0.13286299E-03  0.97758004E-05
  0.45189640E-03 -0.24085110E-03  0.18196797E-04
 -0.32935041E-03  0.10480832E-04 -0.61716578E-04
  0.15391316E-03  0.31711971E-03  0.12514113E-03
  0.11645434E-02 -0.69810821E-03  0.14685706E-03
 -0.42264568E-03 -0.30736844E-03 -0.78793445E-05
  0.47123745E-03  0.96042530E-03 -0.22001537E-04
 -0.60266723E-04 -0.49881102E-03 -0.30705548E-03
  0.46812995E-03 -0.93042128E-05 -0.45052915E-04
  0.75859246E-04 -0.44355438E-04 -0.11272401E-03
  0.00000000E+00  0.00000000E+00  0.00000000E+00
  0.00000000E+00  0.00000000E+00  0.00000000E+00
  0.00000000E+00  0.00000000E+00  0.00000000E+00
  0.00000000E+00  0.00000000E+00  0.00000000E+00
  0.00000000E+00  0.00000000E+00  0.00000000E+00
  0.00000000E+00  0.00000000E+00  0.00000000E+00
  0.00000000E+00  0.00000000E+00  0.00000000E+00
  0.00000000E+00  0.00000000E+00  0.00000000E+00
  0.00000000E+00  0.00000000E+00  0.00000000E+00
  0.00000000E+00  0.00000000E+00  0.00000000E+00
  0.00000000E+00  0.00000000E+00  0.00000000E+00
  0.00000000E+00  0.00000000E+00  0.00000000E+00
  0.00000000E+00  0.00000000E+00  0.00000000E+00
  0.00000000E+00  0.00000000E+00  0.00000000E+00
  0.00000000E+00  0.00000000E+00  0.00000000E+00
  0.00000000E+00  0.00000000E+00  0.00000000E+00
  0.00000000E+00  0.00000000E+00  0.00000000E+00
  0.00000000E+00  0.00000000E+00  0.00000000E+00
  0.00000000E+00  0.00000000E+00  0.00000000E+00
  0.00000000E+00  0.00000000E+00  0.00000000E+00
  0.00000000E+00  0.00000000E+00  0.00000000E+00
  0.00000000E+00  0.00000000E+00  0.00000000E+00
  0.00000000E+00  0.00000000E+00  0.00000000E+00
  0.00000000E+00  0.00000000E+00  0.00000000E+00
 -0.23536355E-04 -0.88846945E-04  0.72257332E-04
 -0.15053678E-03  0.16062162E-03  0.23516394E-05
 -0.10143583E-04 -0.22233566E-03  0.58575818E-05
 -0.10397948E-03 -0.57104816E-04  0.34373137E-04
 -0.51002623E-04  0.98348440E-04  0.16831826E-04
  0.36777187E-03 -0.19212756E-04  0.28536436E-04
 -0.20478465E-04 -0.14005663E-03 -0.18068262E-04
  0.88581978E-04 -0.27808889E-04  0.36030813E-04
  0.11391921E-03  0.13370055E-03 -0.39015285E-04
  0.14311411E-03  0.10627135E-03  0.18303761E-05
 -0.40799555E-05 -0.16296588E-03 -0.57699290E-05
 -0.20201940E-03  0.12734340E-03 -0.53988252E-04
  0.00000000E+00  0.00000000E+00  0.00000000E+00
  0.00000000E+00  0.00000000E+00  0.00000000E+00
  0.00000000E+00  0.00000000E+00  0.00000000E+00
  0.00000000E+00  0.00000000E+00  0.00000000E+00
  0.00000000E+00  0.00000000E+00  0.00000000E+00
  0.00000000E+00  0.00000000E+00  0.00000000E+00
  0.00000000E+00  0.00000000E+00  0.00000000E+00
  0.00000000E+00  0.00000000E+00  0.00000000E+00
  0.00000000E+00  0.00000000E+00  0.00000000E+00
  0.00000000E+00  0.00000000E+00  0.00000000E+00
  0.00000000E+00  0.00000000E+00  0.00000000E+00
  0.00000000E+00  0.00000000E+00  0.00000000E+00
  0.00000000E+00  0.00000000E+00  0.00000000E+00
  0.00000000E+00  0.00000000E+00  0.00000000E+00
  0.00000000E+00  0.00000000E+00  0.00000000E+00
  0.00000000E+00  0.00000000E+00  0.00000000E+00
  0.00000000E+00  0.00000000E+00  0.00000000E+00
  0.00000000E+00  0.00000000E+00  0.00000000E+00
  0.00000000E+00  0.00000000E+00  0.00000000E+00
  0.00000000E+00  0.00000000E+00  0.00000000E+00
  0.00000000E+00  0.00000000E+00  0.00000000E+00
  0.00000000E+00  0.00000000E+00  0.00000000E+00
  0.00000000E+00  0.00000000E+00  0.00000000E+00
  0.00000000E+00  0.00000000E+00  0.00000000E+00
  0.00000000E+00  0.00000000E+00  0.00000000E+00
  0.00000000E+00  0.00000000E+00  0.00000000E+00
  0.00000000E+00  0.00000000E+00  0.00000000E+00
  0.00000000E+00  0.00000000E+00  0.00000000E+00
  0.00000000E+00  0.00000000E+00  0.00000000E+00
  0.00000000E+00  0.00000000E+00  0.00000000E+00
  0.00000000E+00  0.00000000E+00  0.00000000E+00
  0.00000000E+00  0.00000000E+00  0.00000000E+00
  0.00000000E+00  0.00000000E+00  0.00000000E+00
  0.00000000E+00  0.00000000E+00  0.00000000E+00
  0.00000000E+00  0.00000000E+00  0.00000000E+00
  0.00000000E+00  0.00000000E+00  0.00000000E+00
  0.00000000E+00  0.00000000E+00  0.00000000E+00
  0.00000000E+00  0.00000000E+00  0.00000000E+00
  0.00000000E+00  0.00000000E+00  0.00000000E+00
  0.00000000E+00  0.00000000E+00  0.00000000E+00
  0.00000000E+00  0.00000000E+00  0.00000000E+00
  0.00000000E+00  0.00000000E+00  0.00000000E+00
  0.00000000E+00  0.00000000E+00  0.00000000E+00
  0.00000000E+00  0.00000000E+00  0.00000000E+00
  0.00000000E+00  0.00000000E+00  0.00000000E+00
  0.00000000E+00  0.00000000E+00  0.00000000E+00
  0.00000000E+00  0.00000000E+00  0.00000000E+00
  0.00000000E+00  0.00000000E+00  0.00000000E+00
  0.00000000E+00  0.00000000E+00  0.00000000E+00
  0.00000000E+00  0.00000000E+00  0.00000000E+00
  0.00000000E+00  0.00000000E+00  0.00000000E+00
  0.00000000E+00  0.00000000E+00  0.00000000E+00
  0.00000000E+00  0.00000000E+00  0.00000000E+00
  0.00000000E+00  0.00000000E+00  0.00000000E+00
  0.00000000E+00  0.00000000E+00  0.00000000E+00
  0.00000000E+00  0.00000000E+00  0.00000000E+00
  0.00000000E+00  0.00000000E+00  0.00000000E+00
  0.00000000E+00  0.00000000E+00  0.00000000E+00
  0.00000000E+00  0.00000000E+00  0.00000000E+00
  0.00000000E+00  0.00000000E+00  0.00000000E+00
  0.00000000E+00  0.00000000E+00  0.00000000E+00
  0.00000000E+00  0.00000000E+00  0.00000000E+00
  0.00000000E+00  0.00000000E+00  0.00000000E+00
  0.00000000E+00  0.00000000E+00  0.00000000E+00
  0.00000000E+00  0.00000000E+00  0.00000000E+00
  0.00000000E+00  0.00000000E+00  0.00000000E+00
  0.00000000E+00  0.00000000E+00  0.00000000E+00
  0.00000000E+00  0.00000000E+00  0.00000000E+00
  0.00000000E+00  0.00000000E+00  0.00000000E+00
  0.00000000E+00  0.00000000E+00  0.00000000E+00
  0.00000000E+00  0.00000000E+00  0.00000000E+00
  0.00000000E+00  0.00000000E+00  0.00000000E+00
  0.00000000E+00  0.00000000E+00  0.00000000E+00
  0.00000000E+00  0.00000000E+00  0.00000000E+00
  0.00000000E+00  0.00000000E+00  0.00000000E+00
  0.00000000E+00  0.00000000E+00  0.00000000E+00
  0.00000000E+00  0.00000000E+00  0.00000000E+00
  0.00000000E+00  0.00000000E+00  0.00000000E+00
  0.00000000E+00  0.00000000E+00  0.00000000E+00
  0.00000000E+00  0.00000000E+00  0.00000000E+00
  0.00000000E+00  0.00000000E+00  0.00000000E+00
  0.00000000E+00  0.00000000E+00  0.00000000E+00
  0.00000000E+00  0.00000000E+00  0.00000000E+00
  0.00000000E+00  0.00000000E+00  0.00000000E+00
  0.00000000E+00  0.00000000E+00  0.00000000E+00
  0.00000000E+00  0.00000000E+00  0.00000000E+00
  0.00000000E+00  0.00000000E+00  0.00000000E+00
  0.00000000E+00  0.00000000E+00  0.00000000E+00
  0.00000000E+00  0.00000000E+00  0.00000000E+00
  0.00000000E+00  0.00000000E+00  0.00000000E+00
  0.00000000E+00  0.00000000E+00  0.00000000E+00
  0.00000000E+00  0.00000000E+00  0.00000000E+00
  0.00000000E+00  0.00000000E+00  0.00000000E+00
  0.00000000E+00  0.00000000E+00  0.00000000E+00
  0.00000000E+00  0.00000000E+00  0.00000000E+00
  0.00000000E+00  0.00000000E+00  0.00000000E+00
  0.00000000E+00  0.00000000E+00  0.00000000E+00
  0.00000000E+00  0.00000000E+00  0.00000000E+00
  0.00000000E+00  0.00000000E+00  0.00000000E+00
  0.00000000E+00  0.00000000E+00  0.00000000E+00
  0.00000000E+00  0.00000000E+00  0.00000000E+00
  0.00000000E+00  0.00000000E+00  0.00000000E+00
  0.00000000E+00  0.00000000E+00  0.00000000E+00
  0.00000000E+00  0.00000000E+00  0.00000000E+00
  0.00000000E+00  0.00000000E+00  0.00000000E+00
  0.00000000E+00  0.00000000E+00  0.00000000E+00
  0.00000000E+00  0.00000000E+00  0.00000000E+00
  0.00000000E+00  0.00000000E+00  0.00000000E+00
  0.00000000E+00  0.00000000E+00  0.00000000E+00