 H  O Pt                                
   1.00000000000000     
     8.3458886400000001    0.0000000000000000    0.0000000000000000
     0.0000000000000000    9.6370021099999992    0.0000000000000000
     0.0000000000000000    0.0000000000000000   32.5429263600000027
   H    O    Pt
    48    24    36
Selective dynamics
Direct
  0.9866588699999994  0.1091562000000010  0.4810797499999993   T   T   T
  0.8415376700000010  0.7002238500000004  0.4911770300000029   T   T   T
  0.5595847800000016  0.6225859299999996  0.4389625199999969   T   T   T
  0.7752265700000009  0.0044780400000022  0.4397864199999972   T   T   T
  0.3930058799999969  0.0626505099999974  0.4606367399999982   T   T   T
  0.3988322000000011  0.2279447200000035  0.4556628300000014   T   T   T
  0.2109548600000011  0.2015915200000009  0.6272647300000003   T   T   T
  0.9722808300000025  0.9416250900000023  0.4789074299999996   T   T   T
  0.6261381699999973  0.1073866400000014  0.5659297099999989   T   T   T
  0.7621781699999985  0.6254322099999996  0.5273183299999999   T   T   T
  0.2053169599999976  0.4327608899999973  0.5257905300000019   T   T   T
  0.8398942700000021  0.3313891199999972  0.4974548499999969   T   T   T
  0.5576703400000014  0.1278597900000022  0.5193248799999992   T   T   T
  0.6078675899999979  0.8960905499999967  0.6367338499999988   T   T   T
  0.9466736400000002  0.7148026699999974  0.6475187599999970   T   T   T
  0.0589544700000033  0.1999038399999975  0.6549364299999993   T   T   T
  0.5164289200000027  0.0809162799999967  0.7463334300000000   T   T   T
  0.3540542699999989  0.0936542000000031  0.7226192899999972   T   T   T
  0.5032413500000033  0.5347593600000025  0.6511011999999994   T   T   T
  0.5659597200000022  0.3187761699999996  0.7136318000000017   T   T   T
  0.1757211500000011  0.5537999599999992  0.6463484599999987   T   T   T
  0.0259774399999984  0.8821029100000004  0.7429538000000022   T   T   T
  0.7344676900000024  0.1554274599999985  0.6377259200000012   T   T   T
  0.7748990600000027  0.3058874299999985  0.6364759000000006   T   T   T
  0.0281616299999996  0.6599083799999974  0.4308225799999974   T   T   T
  0.3175866400000018  0.8645121599999968  0.4969725899999986   T   T   T
  0.6010525499999986  0.0447297600000027  0.4410658600000019   T   T   T
  0.5927067100000016  0.6400429500000016  0.4824625899999972   T   T   T
  0.2227921599999974  0.4064264499999979  0.4384901600000006   T   T   T
  0.3495692500000018  0.4845405499999984  0.4620880900000017   T   T   T
  0.4443848800000012  0.5046053299999969  0.5660386699999975   T   T   T
  0.0988231400000004  0.7664311600000033  0.4624460900000003   T   T   T
  0.2257351800000009  0.7785540900000001  0.5664506500000002   T   T   T
  0.3765026199999966  0.7937121599999983  0.4577219499999998   T   T   T
  0.5112343600000031  0.8900211300000009  0.5994889299999997   T   T   T
  0.8163836000000018  0.7327806899999985  0.6135667499999968   T   T   T
  0.1845237499999968  0.9292991800000010  0.5724325600000029   T   T   T
  0.0582359200000013  0.4688881800000004  0.5534711900000033   T   T   T
  0.7952494800000025  0.2268232099999992  0.5322092899999973   T   T   T
  0.5476524199999986  0.3726917799999967  0.5562591400000017   T   T   T
  0.9810546699999989  0.6046023600000012  0.7086486600000015   T   T   T
  0.7950129500000003  0.5729727599999990  0.6943669999999997   T   T   T
  0.9445214200000009  0.9017347200000003  0.6766468599999982   T   T   T
  0.6138060400000001  0.4792893199999995  0.6168665900000008   T   T   T
  0.5649287600000008  0.3276619000000025  0.7366304199999973   T   T   T
  0.1971526700000013  0.4332592399999982  0.6748544699999997   T   T   T
  0.5201569399999997  0.9128825700000007  0.6987172199999989   T   T   T
  0.6124254899999997  0.7618453600000024  0.7045302800000002   T   T   T
  0.7359577699999988  0.6991565699999995  0.5068685800000026   T   T   T
  0.4974335400000029  0.6186038600000003  0.4645328399999968   T   T   T
  0.2739426500000022  0.4026413699999978  0.4654920999999987   T   T   T
  0.9328979699999991  0.0273820999999970  0.4696994600000011   T   T   T
  0.4706710999999970  0.0694601499999976  0.7184894999999969   T   T   T
  0.8919593500000005  0.2666306899999995  0.5160037200000005   T   T   T
  0.1748657899999984  0.4882268400000029  0.5504421099999988   T   T   T
  0.1731502000000020  0.2196452499999992  0.6548073200000033   T   T   T
  0.6029230199999986  0.1730917399999967  0.5436799200000024   T   T   T
  0.6140552299999982  0.5318990800000023  0.6442428499999977   T   T   T
  0.0592975799999991  0.9558949999999982  0.7235687800000008   T   T   T
  0.8166376900000003  0.2174672700000002  0.6287659700000034   T   T   T
  0.3281003000000027  0.8846847699999998  0.4672966500000015   T   T   T
  0.6708514199999982  0.9730654199999975  0.4282005399999989   T   T   T
  0.4674430800000025  0.1435881800000018  0.4617149299999994   T   T   T
  0.0026305000000022  0.7054358899999968  0.4572938800000017   T   T   T
  0.8833149299999974  0.6437647600000034  0.6950370200000009   T   T   T
  0.9298844099999997  0.7367782299999988  0.6177034199999980   T   T   T
  0.5889091800000017  0.9522542600000037  0.6117036799999980   T   T   T
  0.5543731400000027  0.4677712100000022  0.5667889899999992   T   T   T
  0.2631513799999965  0.8711022600000007  0.5589800699999969   T   T   T
  0.9076484599999972  0.9657691800000023  0.6973617900000022   T   T   T
  0.2077112200000002  0.5382937600000020  0.6744350800000021   T   T   T
  0.5408767400000016  0.8190205200000023  0.6866354200000018   T   T   T
  0.1666666699999979  0.0833333300000021  0.2191065600000002   F   F   F
  0.5000000000000000  0.0833333300000021  0.2191065600000002   F   F   F
  0.8333333300000021  0.0833333300000021  0.2191065600000002   F   F   F
  0.0000000000000000  0.3333333300000021  0.2191065600000002   F   F   F
  0.3333333300000021  0.3333333300000021  0.2191065600000002   F   F   F
  0.6666666699999979  0.3333333300000021  0.2191065600000002   F   F   F
  0.1666666699999979  0.5833333300000021  0.2191065600000002   F   F   F
  0.5000000000000000  0.5833333300000021  0.2191065600000002   F   F   F
  0.8333333300000021  0.5833333300000021  0.2191065600000002   F   F   F
  0.0000000000000000  0.8333333300000021  0.2191065600000002   F   F   F
  0.3333333300000021  0.8333333300000021  0.2191065600000002   F   F   F
  0.6666666699999979  0.8333333300000021  0.2191065600000002   F   F   F
  0.0000000000000000  0.1666666699999979  0.2889055500000026   F   F   F
  0.3333333300000021  0.1666666699999979  0.2889055500000026   F   F   F
  0.6666666699999979  0.1666666699999979  0.2889055500000026   F   F   F
  0.1666666699999979  0.4166666699999979  0.2889055500000026   F   F   F
  0.5000000000000000  0.4166666699999979  0.2889055500000026   F   F   F
  0.8333333300000021  0.4166666699999979  0.2889055500000026   F   F   F
  0.0000000000000000  0.6666666699999979  0.2889055500000026   F   F   F
  0.3333333300000021  0.6666666699999979  0.2889055500000026   F   F   F
  0.6666666699999979  0.6666666699999979  0.2889055500000026   F   F   F
  0.1666666699999979  0.9166666699999979  0.2889055500000026   F   F   F
  0.5000000000000000  0.9166666699999979  0.2889055500000026   F   F   F
  0.8333333300000021  0.9166666699999979  0.2889055500000026   F   F   F
  0.0013727899999978  0.0118595400000032  0.3646125400000031   T   T   T
  0.3329056899999969  0.0059264699999986  0.3581850200000005   T   T   T
  0.6641514000000015  0.0070798100000005  0.3615402100000011   T   T   T
  0.1600288400000025  0.2603851300000031  0.3611674699999980   T   T   T
  0.4991999599999986  0.2551161900000025  0.3592518999999967   T   T   T
  0.8325169299999970  0.2561178899999987  0.3604156299999985   T   T   T
  0.0019528600000029  0.5091985600000015  0.3621969599999986   T   T   T
  0.3364557499999989  0.5097226899999967  0.3612422100000003   T   T   T
  0.6601776500000014  0.5057567899999995  0.3641189499999982   T   T   T
  0.1637960500000020  0.7566964999999968  0.3597194900000034   T   T   T
  0.5011849300000009  0.7519697000000036  0.3575204099999993   T   T   T
  0.8337075399999989  0.7552604999999986  0.3644952000000004   T   T   T
 
  0.00000000E+00  0.00000000E+00  0.00000000E+00
  0.00000000E+00  0.00000000E+00  0.00000000E+00
  0.00000000E+00  0.00000000E+00  0.00000000E+00
  0.00000000E+00  0.00000000E+00  0.00000000E+00
  0.00000000E+00  0.00000000E+00  0.00000000E+00
  0.00000000E+00  0.00000000E+00  0.00000000E+00
  0.00000000E+00  0.00000000E+00  0.00000000E+00
  0.00000000E+00  0.00000000E+00  0.00000000E+00
  0.00000000E+00  0.00000000E+00  0.00000000E+00
  0.00000000E+00  0.00000000E+00  0.00000000E+00
  0.00000000E+00  0.00000000E+00  0.00000000E+00
  0.00000000E+00  0.00000000E+00  0.00000000E+00
  0.00000000E+00  0.00000000E+00  0.00000000E+00
  0.00000000E+00  0.00000000E+00  0.00000000E+00
  0.00000000E+00  0.00000000E+00  0.00000000E+00
  0.00000000E+00  0.00000000E+00  0.00000000E+00
  0.00000000E+00  0.00000000E+00  0.00000000E+00
  0.00000000E+00  0.00000000E+00  0.00000000E+00
  0.00000000E+00  0.00000000E+00  0.00000000E+00
  0.00000000E+00  0.00000000E+00  0.00000000E+00
  0.00000000E+00  0.00000000E+00  0.00000000E+00
  0.00000000E+00  0.00000000E+00  0.00000000E+00
  0.00000000E+00  0.00000000E+00  0.00000000E+00
  0.00000000E+00  0.00000000E+00  0.00000000E+00
  0.00000000E+00  0.00000000E+00  0.00000000E+00
  0.00000000E+00  0.00000000E+00  0.00000000E+00
  0.00000000E+00  0.00000000E+00  0.00000000E+00
  0.00000000E+00  0.00000000E+00  0.00000000E+00
  0.00000000E+00  0.00000000E+00  0.00000000E+00
  0.00000000E+00  0.00000000E+00  0.00000000E+00
  0.00000000E+00  0.00000000E+00  0.00000000E+00
  0.00000000E+00  0.00000000E+00  0.00000000E+00
  0.00000000E+00  0.00000000E+00  0.00000000E+00
  0.00000000E+00  0.00000000E+00  0.00000000E+00
  0.00000000E+00  0.00000000E+00  0.00000000E+00
  0.00000000E+00  0.00000000E+00  0.00000000E+00
  0.00000000E+00  0.00000000E+00  0.00000000E+00
  0.00000000E+00  0.00000000E+00  0.00000000E+00
  0.00000000E+00  0.00000000E+00  0.00000000E+00
  0.00000000E+00  0.00000000E+00  0.00000000E+00
  0.00000000E+00  0.00000000E+00  0.00000000E+00
  0.00000000E+00  0.00000000E+00  0.00000000E+00
  0.00000000E+00  0.00000000E+00  0.00000000E+00
  0.00000000E+00  0.00000000E+00  0.00000000E+00
  0.00000000E+00  0.00000000E+00  0.00000000E+00
  0.00000000E+00  0.00000000E+00  0.00000000E+00
  0.00000000E+00  0.00000000E+00  0.00000000E+00
  0.00000000E+00  0.00000000E+00  0.00000000E+00
  0.00000000E+00  0.00000000E+00  0.00000000E+00
  0.00000000E+00  0.00000000E+00  0.00000000E+00
  0.00000000E+00  0.00000000E+00  0.00000000E+00
  0.00000000E+00  0.00000000E+00  0.00000000E+00
  0.00000000E+00  0.00000000E+00  0.00000000E+00
  0.00000000E+00  0.00000000E+00  0.00000000E+00
  0.00000000E+00  0.00000000E+00  0.00000000E+00
  0.00000000E+00  0.00000000E+00  0.00000000E+00
  0.00000000E+00  0.00000000E+00  0.00000000E+00
  0.00000000E+00  0.00000000E+00  0.00000000E+00
  0.00000000E+00  0.00000000E+00  0.00000000E+00
  0.00000000E+00  0.00000000E+00  0.00000000E+00
  0.00000000E+00  0.00000000E+00  0.00000000E+00
  0.00000000E+00  0.00000000E+00  0.00000000E+00
  0.00000000E+00  0.00000000E+00  0.00000000E+00
  0.00000000E+00  0.00000000E+00  0.00000000E+00
  0.00000000E+00  0.00000000E+00  0.00000000E+00
  0.00000000E+00  0.00000000E+00  0.00000000E+00
  0.00000000E+00  0.00000000E+00  0.00000000E+00
  0.00000000E+00  0.00000000E+00  0.00000000E+00
  0.00000000E+00  0.00000000E+00  0.00000000E+00
  0.00000000E+00  0.00000000E+00  0.00000000E+00
  0.00000000E+00  0.00000000E+00  0.00000000E+00
  0.00000000E+00  0.00000000E+00  0.00000000E+00
  0.00000000E+00  0.00000000E+00  0.00000000E+00
  0.00000000E+00  0.00000000E+00  0.00000000E+00
  0.00000000E+00  0.00000000E+00  0.00000000E+00
  0.00000000E+00  0.00000000E+00  0.00000000E+00
  0.00000000E+00  0.00000000E+00  0.00000000E+00
  0.00000000E+00  0.00000000E+00  0.00000000E+00
  0.00000000E+00  0.00000000E+00  0.00000000E+00
  0.00000000E+00  0.00000000E+00  0.00000000E+00
  0.00000000E+00  0.00000000E+00  0.00000000E+00
  0.00000000E+00  0.00000000E+00  0.00000000E+00
  0.00000000E+00  0.00000000E+00  0.00000000E+00
  0.00000000E+00  0.00000000E+00  0.00000000E+00
  0.00000000E+00  0.00000000E+00  0.00000000E+00
  0.00000000E+00  0.00000000E+00  0.00000000E+00
  0.00000000E+00  0.00000000E+00  0.00000000E+00
  0.00000000E+00  0.00000000E+00  0.00000000E+00
  0.00000000E+00  0.00000000E+00  0.00000000E+00
  0.00000000E+00  0.00000000E+00  0.00000000E+00
  0.00000000E+00  0.00000000E+00  0.00000000E+00
  0.00000000E+00  0.00000000E+00  0.00000000E+00
  0.00000000E+00  0.00000000E+00  0.00000000E+00
  0.00000000E+00  0.00000000E+00  0.00000000E+00
  0.00000000E+00  0.00000000E+00  0.00000000E+00
  0.00000000E+00  0.00000000E+00  0.00000000E+00
  0.00000000E+00  0.00000000E+00  0.00000000E+00
  0.00000000E+00  0.00000000E+00  0.00000000E+00
  0.00000000E+00  0.00000000E+00  0.00000000E+00
  0.00000000E+00  0.00000000E+00  0.00000000E+00
  0.00000000E+00  0.00000000E+00  0.00000000E+00
  0.00000000E+00  0.00000000E+00  0.00000000E+00
  0.00000000E+00  0.00000000E+00  0.00000000E+00
  0.00000000E+00  0.00000000E+00  0.00000000E+00
  0.00000000E+00  0.00000000E+00  0.00000000E+00
  0.00000000E+00  0.00000000E+00  0.00000000E+00
  0.00000000E+00  0.00000000E+00  0.00000000E+00
  0.00000000E+00  0.00000000E+00  0.00000000E+00
