 H  O Pt 
 1.0000000000000000
     8.3458886400000001    0.0000000000000000    0.0000000000000000
     0.0000000000000000    9.6370021099999992    0.0000000000000000
     0.0000000000000000    0.0000000000000000   32.5429263600000027
  48  24  36
Selective dynamics
Cartesian
  8.2345450546882368  1.0519385297195818 15.6557428775372109   T   T   T
  7.0233796801850694  6.7480587199223230 15.9843379170135123   T   T   T
  4.6702322585188991  5.9998619210663113 14.2851249631600297   T   T   T
  6.4699546239891648  0.0431548809286644 14.3119370801880326   T   T   T
  3.2799833093452029  0.6037630970625761 14.9904675085304682   T   T   T
  3.3286091272462084  2.1967037476033591 14.8286019216792013   T   T   T
  1.7606057696267903  1.9427379035981069 20.4130299166152867   T   T   T
  8.1145475339867712  9.0744429791589400 15.5850492277468575   T   T   T
  5.2256794400733897  1.0348852762658103 18.4170088774661593   T   T   T
  6.3610541306589887  6.0272915274319629 17.1604815814681793   T   T   T
  1.7135524840633343  4.1705176100554775 17.1107624985753723   T   T   T
  7.0096640467940929  3.1935976486710427 16.1886365509748487   T   T   T
  4.6542545554709376  1.2321850660141569 16.9003513267558390   T   T   T
  5.0731952140051781  8.6356265211010594 20.7211827914692890   T   T   T
  7.9008327778634495  6.8885548390236329 21.0721553233985155   T   T   T
  0.4920274414502208  1.9264737278771022 21.3135480119712959   T   T   T
  4.3100582567954682  0.7797903610933506 24.2878738524962152   T   T   T
  2.9548975099364929  0.9025457230103620 23.5161463407854860   T   T   T
  4.1999962661432644  5.1534770806622490 21.1887384045076352   T   T   T
  4.7234367978455811  3.0720466229077186 23.2236671155542496   T   T   T
  1.4665491495927359  5.3369713830379153 21.0340703366794095   T   T   T
  0.2168048213922816  8.5008276049071387 24.1778908022821710   T   T   T
  6.1297855504180419  1.4978547599719403 20.7534676524232502   T   T   T
  6.4672212620006784  2.9478378083324772 20.7127883436147258   T   T   T
  0.2350338279008832  6.3595384504666805 14.0202274951652104   T   T   T
  2.6505427309917695  8.3313055100406572 16.1729423993084751   T   T   T
  5.0163176490880321  0.4310607914997936 14.3535738018900698   T   T   T
  4.9466641978407742  6.1680952596406238 15.7007445378248747   T   T   T
  1.8593985572250624  3.9167325562098090 14.2697529864646189   T   T   T
  2.9174660324683201  4.6695183027305607 15.0376986847030540   T   T   T
  3.7087867217797630  4.8628826299272454 18.4205547547223425   T   T   T
  0.8247669214951296  7.3860987060897472 15.0493490523399327   T   T   T
  1.8839606744103552  7.5029274080791293 18.4339617895241368   T   T   T
  3.1422489391882369  7.6490057606526571 14.8956117122056035   T   T   T
  4.2667050375016702  8.5771355077545834 19.5091241026251971   T   T   T
  6.8134466131223039  7.0618090556972550 19.9672575621945327   T   T   T
  1.5400146689351999  8.9556581584812687 18.6286306461462807   T   T   T
  0.4860305031679488  4.5186763800140595 18.0115721785515710   T   T   T
  6.6370636010979069  2.1858957533669727 17.3196477325778844   T   T   T
  4.5706461107465088  3.5916314702396552 18.1023002300969331   T   T   T
  8.1877730255719499  5.8265542190309789 23.0615011574926818   T   T   T
  6.6350895480578886  5.5217396970925225 22.5967341478141215   T   T   T
  7.8828705894146687  8.6900193993002581 22.0200689367052291   T   T   T
  5.1227568563993859  4.6189121881404649 20.0746440123143124   T   T   T
  4.7148325204932870  3.1576784216666089 23.9721095125958747   T   T   T
  1.6454142288986688  4.1753202100569959 21.9617393209268315   T   T   T
  4.3411718965631616  8.7974512532722215 22.7383030369239236   T   T   T
  5.1112349398374342  7.3419053418137095 22.9274770204301817   T   T   T
  6.1422215921627323  6.7377733403103619 16.4949868731377691   T   T   T
  4.1515249306409858  5.9614867040741437 15.1172580039216644   T   T   T
  2.2862948506464962  3.8802557322632905 15.1484751314617583   T   T   T
  7.7858625701020605  0.2638813554762310 15.2853949381117680   T   T   T
  3.9281685866663043  0.6693876121109165 23.3817508889332224   T   T   T
  7.4441934065067841  2.5695205221207558 16.7922710614460620   T   T   T
  1.4594104102856256  4.7050430872386322 17.9129970511730221   T   T   T
  1.4450922871937280  2.1167217377014773 21.3093463947489568   T   T   T
  5.0319283834124926  1.6680854636035711 17.6929355999706921   T   T   T
  5.1248365683895871  5.1259125562670578 20.9655476255065274   T   T   T
  0.4948909993014912  9.2119621319384493 23.5470455239350436   T   T   T
  6.8155672199668418  2.0957325398459394 20.4618846593839727   T   T   T
  2.7382885665505921  8.5257089951748632 15.2072004692246949   T   T   T
  5.5988512453058688  9.3774335057080354 13.9348986405322357   T   T   T
  3.9012278912186114  1.3837595936310598 15.0255549663025576   T   T   T
  0.0219538600675200  6.7982871603997266 14.8816810617186768   T   T   T
  7.3720480398293962  6.2039623504636436 22.6185385593338495   T   T   T
  7.7607117339321023  7.1003333571120644 20.1018769093801524   T   T   T
  4.9149704353537151  9.1768763128764874 19.9066278123810072   T   T   T
  4.6267364914471303  4.5079121377672529 18.4449723632287785   T   T   T
  2.1962321129423232  8.3948143176457677 18.1908472547176494   T   T   T
  7.5751329714274940  9.3071196254329696 22.6941933782477854   T   T   T
  1.7335347113985409  5.1875381009198325 21.9480911430407097   T   T   T
  4.5140970400062335  7.8929024793732969 22.3451259092276722   T   T   T
  1.3909814678196286  0.8030834770433262  7.1303686470729222   F   F   F
  4.1729443200000000  0.8030834770433262  7.1303686470729222   F   F   F
  6.9549071721803708  0.8030834770433262  7.1303686470729222   F   F   F
  0.0000000000000000  3.2123340045433260  7.1303686470729222   F   F   F
  2.7819628521803712  3.2123340045433260  7.1303686470729222   F   F   F
  5.5639257878196293  3.2123340045433260  7.1303686470729222   F   F   F
  1.3909814678196286  5.6215845320433253  7.1303686470729222   F   F   F
  4.1729443200000000  5.6215845320433253  7.1303686470729222   F   F   F
  6.9549071721803708  5.6215845320433253  7.1303686470729222   F   F   F
  0.0000000000000000  8.0308350595433247  7.1303686470729222   F   F   F
  2.7819628521803712  8.0308350595433247  7.1303686470729222   F   F   F
  5.5639257878196293  8.0308350595433247  7.1303686470729222   F   F   F
  0.0000000000000000  1.6061670504566734  9.4018320386452991   F   F   F
  2.7819628521803712  1.6061670504566734  9.4018320386452991   F   F   F
  5.5639257878196293  1.6061670504566734  9.4018320386452991   F   F   F
  1.3909814678196286  4.0154175779566739  9.4018320386452991   F   F   F
  4.1729443200000000  4.0154175779566739  9.4018320386452991   F   F   F
  6.9549071721803708  4.0154175779566739  9.4018320386452991   F   F   F
  0.0000000000000000  6.4246681054566732  9.4018320386452991   F   F   F
  2.7819628521803712  6.4246681054566732  9.4018320386452991   F   F   F
  5.5639257878196293  6.4246681054566732  9.4018320386452991   F   F   F
  1.3909814678196286  8.8339186329566726  9.4018320386452991   F   F   F
  4.1729443200000000  8.8339186329566726  9.4018320386452991   F   F   F
  6.9549071721803708  8.8339186329566726  9.4018320386452991   F   F   F
  0.0114571524661056  0.1142904120036294 11.8655590391525543   T   T   T
  2.7783938163623616  0.0571134038948517 11.6563887291151289   T   T   T
  5.5429336245000957  0.0682281439083991 11.7655764302089363   T   T   T
  1.3355828778283776  2.5093320472226242 11.7534463798375093   T   T   T
  4.1662672752524541  2.4585552613251607 11.6911081263900858   T   T   T
  6.9480935886946753  2.4682086463387480 11.7289793060830068   T   T   T
  0.0162983520895104  4.9071475971289606 11.7869489970958679   T   T   T
  2.8080222217876800  4.9121986390448757 11.7558786381536571   T   T   T
  5.5097691495168952  4.8739792523768264 11.8494961761305238   T   T   T
  1.3670235929718719  7.2922857671296146 11.7063248733267571   T   T   T
  4.1828336138261948  7.2467335855560657 11.6347603748270085   T   T   T
  6.9580302871683459  7.2784470320996544 11.8617404521734731   T   T   T
