 H  O Pt                                
   1.00000000000000     
     8.3458886423026613    0.0000000000000000    0.0000000000000000
     0.0000000000000000    9.6370021085201625    0.0000000000000000
     0.0000000000000000    0.0000000000000000   32.5429263608291137
   H    O    Pt
    48    24    36
Selective dynamics
Direct
  0.2035076556051747  0.4579897383374787  0.5080727421245802   T   T   T
  0.2093978809851576  0.4842602985436177  0.4616986926982947   T   T   T
  0.7689175348742279  0.8505716557192396  0.4665338756116145   T   T   T
  0.7795885802352271  0.6752108874447051  0.4719282134717049   T   T   T
  0.6262370216913387  0.9818702508635491  0.5096249970322174   T   T   T
  0.6043212393110980  0.0451094660317484  0.4655289375679782   T   T   T
  0.0671456993921320  0.7251947710567553  0.4579074530035340   T   T   T
  0.2166932603546414  0.7991429296181579  0.4558404190238579   T   T   T
  0.3196908485484307  0.2200787044893753  0.6739788516345169   T   T   T
  0.4070990434583414  0.0847580410129895  0.6801318843549602   T   T   T
  0.7895902097436714  0.5390109480810387  0.5940527380015335   T   T   T
  0.7674172287609474  0.7004640395659268  0.5992350594311696   T   T   T
  0.8503247258023517  0.4118172770214298  0.7568217283689349   T   T   T
  0.7519392243371005  0.3523909308439362  0.7228738922872818   T   T   T
  0.4574183528967039  0.8066067827944697  0.6962709264894298   T   T   T
  0.6060058472563514  0.9026275194184791  0.7021139595148557   T   T   T
  0.4629017929997731  0.7226666750455181  0.6164800829435009   T   T   T
  0.2456750231371228  0.1377810714110919  0.5631371816085745   T   T   T
  0.2019472056627205  0.8220439243065929  0.6385454323911571   T   T   T
  0.1532015626860866  0.9359195574559223  0.6715310630749166   T   T   T
  0.6750608845280266  0.5240552839954865  0.6574475306547518   T   T   T
  0.5658043329912331  0.3949223258306989  0.6640954444690184   T   T   T
  0.8039888282900784  0.0474515336390402  0.6281962144187264   T   T   T
  0.6389312325683896  0.1057491627785591  0.6424917775040581   T   T   T
  0.8211794661952203  0.1433152801369486  0.4971661283989847   T   T   T
  0.9633560324372625  0.1890604733167620  0.4699286868385106   T   T   T
  0.2670268673732543  0.0468038844938443  0.4648342392361894   T   T   T
  0.2872117502028051  0.9919485691125338  0.5096727707848354   T   T   T
  0.9478238088939306  0.8551488718322505  0.6234096754276666   T   T   T
  0.9692789815645114  0.9208464558890885  0.5824533779098375   T   T   T
  0.4858225120229160  0.3918158288692586  0.4739715576139233   T   T   T
  0.6098286476943994  0.2903813138625658  0.4577526748265499   T   T   T
  0.8503301212413722  0.3137828539024577  0.5566382448111038   T   T   T
  0.8646343904838852  0.2801231407334770  0.6041722825429064   T   T   T
  0.4728712895936075  0.2173559595953144  0.5863667584785142   T   T   T
  0.4746360985135485  0.2790419522896293  0.5414219400525784   T   T   T
  0.2689279962910713  0.4203146903056493  0.5845776173009680   T   T   T
  0.0876712176748139  0.4450132668450660  0.5839029172013206   T   T   T
  0.0717073547662315  0.1544993240120856  0.7118771795643944   T   T   T
  0.9370396190567706  0.1245851185855471  0.6783092743462557   T   T   T
  0.0897914074099759  0.1309029231881298  0.5381910543877296   T   T   T
  0.3286507094110620  0.6864303022336179  0.5843884535424997   T   T   T
  0.7210542725969750  0.4556516979227129  0.5011743174246723   T   T   T
  0.7148667077040159  0.5685988944218080  0.5346137747296517   T   T   T
  0.4921197310879361  0.9081593924547343  0.5741824173676517   T   T   T
  0.6584403082640189  0.9750408690437873  0.5790690482394826   T   T   T
  0.2783795638027975  0.6484484537817635  0.6936510362695386   T   T   T
  0.4631278499414532  0.5794806486320105  0.6952488012286542   T   T   T
  0.2417137495273202  0.4131037110340593  0.4824720652769468   T   T   T
  0.8309227681496678  0.7615827663857907  0.4585628205796143   T   T   T
  0.6778275383940321  0.9952790832220888  0.4820832197689590   T   T   T
  0.1752041485126391  0.7127353000137618  0.4487896032419522   T   T   T
  0.4142502193118927  0.1721312590931249  0.6653612970167991   T   T   T
  0.7140274294678294  0.6106493574204501  0.6037115093994468   T   T   T
  0.8407093810503675  0.3273647015212196  0.7418345028175239   T   T   T
  0.5135682118267647  0.8855117017127313  0.6829906735927311   T   T   T
  0.1562342015182352  0.0722701341629166  0.5566261442133361   T   T   T
  0.1242914271213633  0.8459378710009778  0.6586775661379880   T   T   T
  0.6159057565636413  0.4748026654169716  0.6784630356274282   T   T   T
  0.7479535023758462  0.1313619901043781  0.6395141971086454   T   T   T
  0.9323704765625485  0.1704842998584873  0.4975446017485408   T   T   T
  0.2963528969342715  0.9640367210465658  0.4811754143277397   T   T   T
  0.8820166233582724  0.8774865258084273  0.5971899151040968   T   T   T
  0.5723799228962692  0.3254143102918640  0.4846845847135083   T   T   T
  0.8802106678188235  0.3471823724684391  0.5835198539580854   T   T   T
  0.4156870841015000  0.2854167444160247  0.5682470541926313   T   T   T
  0.1900704236973939  0.4960544965509270  0.5808418995401476   T   T   T
  0.0579109565872298  0.1289606413928359  0.6831031093940541   T   T   T
  0.3647506659570323  0.7582057328148246  0.6036047130137752   T   T   T
  0.7814649644521012  0.5350554000025081  0.5111730964833853   T   T   T
  0.5579249277671996  0.9920241388089505  0.5673579236656667   T   T   T
  0.3870379799552322  0.6567346486013826  0.7036531189790967   T   T   T
  0.1666666700000000  0.0833333330000000  0.2412367800000000   F   F   F
  0.5000000000000000  0.0833333330000000  0.2412367800000000   F   F   F
  0.8333333300000000  0.0833333330000000  0.2412367800000000   F   F   F
  0.0000000000000000  0.3333333300000000  0.2412367800000000   F   F   F
  0.3333333300000000  0.3333333300000000  0.2412367800000000   F   F   F
  0.6666666700000000  0.3333333300000000  0.2412367800000000   F   F   F
  0.1666666700000000  0.5833333300000000  0.2412367800000000   F   F   F
  0.5000000000000000  0.5833333300000000  0.2412367800000000   F   F   F
  0.8333333300000000  0.5833333300000000  0.2412367800000000   F   F   F
  0.0000000000000000  0.8333333300000000  0.2412367800000000   F   F   F
  0.3333333300000000  0.8333333300000000  0.2412367800000000   F   F   F
  0.6666666700000000  0.8333333300000000  0.2412367800000000   F   F   F
  0.0000000000000000  0.1666666700000000  0.3110357600000000   F   F   F
  0.3333333300000000  0.1666666700000000  0.3110357600000000   F   F   F
  0.6666666700000000  0.1666666700000000  0.3110357600000000   F   F   F
  0.1666666700000000  0.4166666700000000  0.3110357600000000   F   F   F
  0.5000000000000000  0.4166666700000000  0.3110357600000000   F   F   F
  0.8333333300000000  0.4166666700000000  0.3110357600000000   F   F   F
  0.0000000000000000  0.6666666700000000  0.3110357600000000   F   F   F
  0.3333333300000000  0.6666666700000000  0.3110357600000000   F   F   F
  0.6666666700000000  0.6666666700000000  0.3110357600000000   F   F   F
  0.1666666700000000  0.9166666700000000  0.3110357600000000   F   F   F
  0.5000000000000000  0.9166666700000000  0.3110357600000000   F   F   F
  0.8333333300000000  0.9166666700000000  0.3110357600000000   F   F   F
  0.9992973966826750  0.0075581265473572  0.3855903843394916   T   T   T
  0.3447798736111065  0.9917496755433988  0.3838037601544599   T   T   T
  0.6710710183894533  0.0001329595563705  0.3817125067069023   T   T   T
  0.1569618179723817  0.2464663339448439  0.3883986486086426   T   T   T
  0.5069962195298852  0.2544567369689902  0.3848126796449714   T   T   T
  0.8333169731526899  0.2388645081679428  0.3825288306509168   T   T   T
  0.9722978515795179  0.4911219830999028  0.3870079749993223   T   T   T
  0.3126421821687657  0.4892785875458502  0.3808565587161333   T   T   T
  0.6462508204855564  0.5143617965381075  0.3858433376808075   T   T   T
  0.1542111128534531  0.7389841706561241  0.3816767397275309   T   T   T
  0.4834543829127883  0.7543792597874192  0.3833350153535987   T   T   T
  0.8200084845074703  0.7546333933817204  0.3821916823630139   T   T   T
 
  0.20027482E-01 -0.73351234E-02 -0.37364748E-02
  0.81353290E-02 -0.23193700E-02  0.88915901E-02
 -0.28309288E-02 -0.10380737E-01 -0.21529803E-01
  0.22459836E-01  0.22334405E-01  0.16572758E-01
 -0.17193651E-01 -0.76115337E-03  0.64427357E-02
  0.14145831E-02  0.15192691E-01  0.44240893E-02
 -0.95170886E-02 -0.76537511E-02 -0.13936953E-01
  0.15625077E-01  0.31170552E-01  0.17220506E-01
 -0.21216093E-01 -0.76749968E-02  0.51282276E-02
 -0.34049587E-01 -0.78490956E-02 -0.91016442E-02
  0.10841583E-01 -0.12417663E-01 -0.27844675E-01
 -0.35144877E-03 -0.55419823E-01 -0.12361237E-01
  0.39119668E-01  0.15596242E-01  0.24192292E-02
  0.22528126E-02  0.20366862E-01 -0.11946239E-01
  0.75322980E-02 -0.26660482E-01  0.68409504E-02
 -0.19628901E-01  0.19402360E-01 -0.13327723E-01
 -0.49372711E-03  0.91058416E-02  0.17200554E-01
 -0.25597118E-01  0.11444707E-01 -0.48487465E-02
 -0.20374870E-01  0.34367072E-02 -0.21686516E-01
  0.30172705E-02 -0.50527638E-02  0.20193430E-01
 -0.10485564E-01  0.18384725E-01  0.10478770E-01
 -0.22337129E-01 -0.59129798E-02  0.23238239E-01
 -0.14841867E-01  0.72311193E-02 -0.16813281E-01
 -0.27987916E-03  0.59839932E-02 -0.34159548E-01
  0.15546910E-01  0.15535552E-01 -0.44019272E-02
  0.17562913E-01 -0.37255048E-02 -0.65522709E-02
 -0.13819337E-01 -0.80499951E-02  0.17202653E-01
 -0.15630210E-01 -0.48486356E-02  0.38319422E-02
  0.28988827E-01 -0.50813795E-02 -0.72113708E-02
  0.13624292E-01 -0.22348088E-01  0.85264435E-02
  0.10042027E-01  0.10508685E-01  0.13734314E-01
 -0.84183239E-02 -0.19580051E-01  0.91250147E-02
  0.10545305E-01  0.95488925E-03 -0.24080744E-01
 -0.16748286E-01 -0.38837507E-01 -0.99352078E-02
 -0.19250254E-01 -0.27529605E-01 -0.45955604E-02
  0.88762760E-02 -0.13264450E-01  0.25048573E-02
 -0.21645095E-01  0.21630673E-01  0.33870544E-01
  0.28884771E-02 -0.15365708E-01 -0.62956197E-02
 -0.12451947E-01  0.13969953E-01 -0.15919767E-01
 -0.87866659E-02  0.11777097E-01  0.30294907E-02
  0.94925496E-02 -0.19424225E-01  0.94925144E-02
  0.75621780E-03 -0.65050673E-02  0.13418553E-01
  0.10594131E-01 -0.34419227E-01  0.33484856E-01
  0.49433601E-02 -0.92353454E-02  0.15352327E-01
 -0.45043784E-02 -0.13383619E-02 -0.37641735E-02
  0.19606708E-01  0.10074909E-01 -0.12085569E-01
 -0.10634420E-01 -0.37728558E-02  0.53467545E-02
 -0.26329769E-01 -0.16007218E-01 -0.26529914E-02
 -0.91782847E-02 -0.17366420E-03 -0.33341113E-02
 -0.33594619E-02 -0.13406088E-02  0.10371175E-02
 -0.20794469E-02 -0.24479601E-02  0.25863385E-02
  0.24590461E-02  0.20000465E-03 -0.68359425E-03
 -0.37378638E-02 -0.46204034E-03 -0.45131127E-02
 -0.20865046E-02  0.30014555E-02 -0.26704392E-02
  0.18404604E-02 -0.27435570E-02 -0.38292036E-02
 -0.47403043E-02  0.41353961E-02  0.22836172E-02
 -0.35062403E-02  0.15091378E-02 -0.26773762E-02
 -0.28915654E-03  0.34093507E-02 -0.69880708E-02
  0.99659005E-02 -0.26818736E-02  0.32804667E-03
 -0.10416352E-02 -0.49372059E-02  0.41047189E-02
 -0.25999500E-02 -0.47596068E-02 -0.13900918E-03
 -0.65228418E-03 -0.20079964E-02  0.16452868E-03
  0.11865432E-01 -0.11540542E-01  0.36135033E-02
  0.28229508E-02  0.28916155E-02 -0.26026966E-02
  0.20767369E-02  0.92356921E-03  0.40636228E-03
  0.12681376E-02  0.43031631E-03  0.38376479E-02
  0.72508148E-03  0.48877984E-02  0.42024875E-02
 -0.53244456E-03 -0.28252008E-02  0.32165898E-02
 -0.44986557E-02 -0.33108222E-02 -0.53135541E-02
 -0.37310849E-02 -0.28055933E-02  0.35743012E-02
  0.59948101E-02  0.62444008E-03 -0.30574267E-03
  0.65931435E-02  0.66581502E-02 -0.23088502E-02
  0.00000000E+00  0.00000000E+00  0.00000000E+00
  0.00000000E+00  0.00000000E+00  0.00000000E+00
  0.00000000E+00  0.00000000E+00  0.00000000E+00
  0.00000000E+00  0.00000000E+00  0.00000000E+00
  0.00000000E+00  0.00000000E+00  0.00000000E+00
  0.00000000E+00  0.00000000E+00  0.00000000E+00
  0.00000000E+00  0.00000000E+00  0.00000000E+00
  0.00000000E+00  0.00000000E+00  0.00000000E+00
  0.00000000E+00  0.00000000E+00  0.00000000E+00
  0.00000000E+00  0.00000000E+00  0.00000000E+00
  0.00000000E+00  0.00000000E+00  0.00000000E+00
  0.00000000E+00  0.00000000E+00  0.00000000E+00
  0.00000000E+00  0.00000000E+00  0.00000000E+00
  0.00000000E+00  0.00000000E+00  0.00000000E+00
  0.00000000E+00  0.00000000E+00  0.00000000E+00
  0.00000000E+00  0.00000000E+00  0.00000000E+00
  0.00000000E+00  0.00000000E+00  0.00000000E+00
  0.00000000E+00  0.00000000E+00  0.00000000E+00
  0.00000000E+00  0.00000000E+00  0.00000000E+00
  0.00000000E+00  0.00000000E+00  0.00000000E+00
  0.00000000E+00  0.00000000E+00  0.00000000E+00
  0.00000000E+00  0.00000000E+00  0.00000000E+00
  0.00000000E+00  0.00000000E+00  0.00000000E+00
  0.00000000E+00  0.00000000E+00  0.00000000E+00
 -0.13674613E-02 -0.45819624E-04  0.85175033E-03
  0.89820742E-03  0.12683670E-02 -0.12896203E-02
 -0.22206706E-02 -0.32546804E-03  0.15313141E-02
  0.97135366E-03 -0.86848276E-03 -0.58676214E-03
 -0.58572404E-03  0.90254070E-03 -0.82608398E-03
 -0.33127640E-03  0.12512608E-02 -0.14191089E-02
  0.24715828E-02 -0.55973363E-03 -0.85034745E-03
 -0.17024668E-03 -0.17269786E-02 -0.91825392E-04
 -0.20277228E-02  0.13718703E-02 -0.16765545E-04
  0.13305112E-02  0.10919866E-02 -0.17492084E-03
 -0.10803140E-02  0.13725237E-02  0.62497303E-05
 -0.14528744E-02  0.19840590E-02  0.12097572E-02
 
           1
   1.00000000000000     
  0.66105779E+01 -0.46130319E-01 -0.25229225E-17  0.00000000E+00
  0.20590734E+00  0.45722860E+00  0.50795793E+00
  0.21037265E+00  0.48401963E+00  0.46197192E+00
  0.76857833E+00  0.84949448E+00  0.46587229E+00
  0.78227971E+00  0.67752846E+00  0.47243747E+00
  0.62417689E+00  0.98179127E+00  0.50982297E+00
  0.60449073E+00  0.46685962E-01  0.46566488E+00
  0.66005367E-01  0.72440057E+00  0.45747919E+00
  0.21856545E+00  0.80237740E+00  0.45636958E+00
  0.31714875E+00  0.21928230E+00  0.67413644E+00
  0.40301924E+00  0.83943566E-01  0.67985220E+00
  0.79088924E+00  0.53772241E+00  0.59319711E+00
  0.76737512E+00  0.69471331E+00  0.59885522E+00
  0.85501202E+00  0.41343565E+00  0.75689607E+00
  0.75220916E+00  0.35450433E+00  0.72250680E+00
  0.45832087E+00  0.80384031E+00  0.69648114E+00
  0.60365392E+00  0.90464084E+00  0.70170442E+00
  0.46284263E+00  0.72361156E+00  0.61700863E+00
  0.24260799E+00  0.13896865E+00  0.56298819E+00
  0.19950590E+00  0.82240054E+00  0.63787904E+00
  0.15356309E+00  0.93539525E+00  0.67215158E+00
  0.67380451E+00  0.52596301E+00  0.65776953E+00
  0.56312791E+00  0.39430876E+00  0.66480952E+00
  0.80221048E+00  0.48201883E-01  0.62767957E+00
  0.63889770E+00  0.10637010E+00  0.64144210E+00
  0.82304229E+00  0.14492735E+00  0.49703086E+00
  0.96546041E+00  0.18867389E+00  0.46972734E+00
  0.26537104E+00  0.45968563E-01  0.46536285E+00
  0.28533895E+00  0.99144544E+00  0.50979052E+00
  0.95129723E+00  0.85462159E+00  0.62318808E+00
  0.97091144E+00  0.91852747E+00  0.58271538E+00
  0.48702574E+00  0.39290628E+00  0.47439359E+00
  0.60881997E+00  0.28834956E+00  0.45803307E+00
  0.85159365E+00  0.31388194E+00  0.55589828E+00
  0.86262762E+00  0.27609310E+00  0.60386699E+00
  0.47056473E+00  0.21449930E+00  0.58622554E+00
  0.47569965E+00  0.27766554E+00  0.54149891E+00
  0.26633449E+00  0.42255923E+00  0.58561841E+00
  0.88017313E-01  0.44341882E+00  0.58370946E+00
  0.70215369E-01  0.15594894E+00  0.71138799E+00
  0.93598681E+00  0.12580719E+00  0.67840237E+00
  0.90928800E-01  0.12888734E+00  0.53848275E+00
  0.32874132E+00  0.68575529E+00  0.58480079E+00
  0.72232366E+00  0.45208013E+00  0.50220326E+00
  0.71545902E+00  0.56764057E+00  0.53508553E+00
  0.49158002E+00  0.90802052E+00  0.57406675E+00
  0.66078957E+00  0.97608631E+00  0.57869768E+00
  0.27710535E+00  0.64805696E+00  0.69381533E+00
  0.45997303E+00  0.57781963E+00  0.69516728E+00
  0.24061401E+00  0.41308569E+00  0.48236961E+00
  0.83052024E+00  0.76144366E+00  0.45859469E+00
  0.67757838E+00  0.99502507E+00  0.48216269E+00
  0.17549879E+00  0.71275605E+00  0.44876860E+00
  0.41380235E+00  0.17208331E+00  0.66522262E+00
  0.71377743E+00  0.61096081E+00  0.60362945E+00
  0.84092990E+00  0.32708001E+00  0.74171684E+00
  0.51300023E+00  0.88594082E+00  0.68306085E+00
  0.15581409E+00  0.72426732E-01  0.55654387E+00
  0.12425678E+00  0.84629165E+00  0.65846283E+00
  0.61709987E+00  0.47452438E+00  0.67847312E+00
  0.74782869E+00  0.13084967E+00  0.63964033E+00
  0.93205895E+00  0.16999041E+00  0.49754033E+00
  0.29627474E+00  0.96382836E+00  0.48118047E+00
  0.88343833E+00  0.87628900E+00  0.59730095E+00
  0.57271817E+00  0.32571436E+00  0.48460461E+00
  0.88045950E+00  0.34727821E+00  0.58353234E+00
  0.41583903E+00  0.28546140E+00  0.56836498E+00
  0.19015730E+00  0.49656169E+00  0.58097104E+00
  0.57847159E-01  0.12866748E+00  0.68320195E+00
  0.36421164E+00  0.75786218E+00  0.60344143E+00
  0.78101791E+00  0.53476427E+00  0.51128293E+00
  0.55864322E+00  0.99208893E+00  0.56734853E+00
  0.38782797E+00  0.65742554E+00  0.70358217E+00
  0.16666667E+00  0.83333333E-01  0.24123678E+00
  0.50000000E+00  0.83333333E-01  0.24123678E+00
  0.83333333E+00  0.83333333E-01  0.24123678E+00
  0.00000000E+00  0.33333333E+00  0.24123678E+00
  0.33333333E+00  0.33333333E+00  0.24123678E+00
  0.66666667E+00  0.33333333E+00  0.24123678E+00
  0.16666667E+00  0.58333333E+00  0.24123678E+00
  0.50000000E+00  0.58333333E+00  0.24123678E+00
  0.83333333E+00  0.58333333E+00  0.24123678E+00
  0.00000000E+00  0.83333333E+00  0.24123678E+00
  0.33333333E+00  0.83333333E+00  0.24123678E+00
  0.66666667E+00  0.83333333E+00  0.24123678E+00
  0.00000000E+00  0.16666667E+00  0.31103576E+00
  0.33333333E+00  0.16666667E+00  0.31103576E+00
  0.66666667E+00  0.16666667E+00  0.31103576E+00
  0.16666667E+00  0.41666667E+00  0.31103576E+00
  0.50000000E+00  0.41666667E+00  0.31103576E+00
  0.83333333E+00  0.41666667E+00  0.31103576E+00
  0.00000000E+00  0.66666667E+00  0.31103576E+00
  0.33333333E+00  0.66666667E+00  0.31103576E+00
  0.66666667E+00  0.66666667E+00  0.31103576E+00
  0.16666667E+00  0.91666667E+00  0.31103576E+00
  0.50000000E+00  0.91666667E+00  0.31103576E+00
  0.83333333E+00  0.91666667E+00  0.31103576E+00
  0.99913355E+00  0.75533720E-02  0.38561656E+00
  0.34488750E+00  0.99188129E+00  0.38376413E+00
  0.67080494E+00  0.99186809E-04  0.38175956E+00
  0.15707821E+00  0.24637621E+00  0.38838062E+00
  0.50692604E+00  0.25455039E+00  0.38478730E+00
  0.83327728E+00  0.23899435E+00  0.38248522E+00
  0.97259400E+00  0.49106390E+00  0.38698184E+00
  0.31262178E+00  0.48909938E+00  0.38085374E+00
  0.64600786E+00  0.51450415E+00  0.38584282E+00
  0.15437053E+00  0.73909748E+00  0.38167136E+00
  0.48332494E+00  0.75452168E+00  0.38333521E+00
  0.81983440E+00  0.75483927E+00  0.38222886E+00
  0.22436057E-02 -0.55812917E-03 -0.95315842E-04
  0.80684834E-03  0.14396023E-03  0.22020157E-03
 -0.57591302E-03 -0.54587772E-03 -0.61647848E-03
  0.23173350E-02  0.16890299E-02  0.57248116E-03
 -0.20453588E-02 -0.15632379E-03  0.28702755E-03
  0.88755618E-03  0.13296383E-02  0.27822002E-03
 -0.24427549E-04 -0.70327163E-03 -0.48279342E-03
  0.75654093E-03  0.17387468E-02  0.36580051E-03
 -0.20272834E-02 -0.10334800E-02  0.16307904E-03
 -0.42346818E-02 -0.48686615E-03 -0.28121198E-03
  0.13320785E-02 -0.12615934E-02 -0.87084724E-03
 -0.12634913E-03 -0.56521931E-02 -0.37836896E-03
  0.44891447E-02  0.11658237E-02 -0.41061960E-04
 -0.35945851E-04  0.22424625E-02 -0.38890518E-03
  0.10337655E-02 -0.24863568E-02  0.23353163E-03
 -0.17724998E-02  0.20661958E-02 -0.27538863E-03
  0.14345704E-03  0.97371084E-03  0.53410517E-03
 -0.27559660E-02  0.14286864E-02 -0.16444754E-03
 -0.32945390E-02  0.48089406E-03 -0.51494061E-03
  0.53851841E-03 -0.29656503E-03  0.70335856E-03
 -0.14195132E-02  0.16723560E-02  0.42770936E-03
 -0.28792918E-02 -0.83953285E-03  0.65952636E-03
 -0.14195184E-02  0.44618214E-03 -0.54082324E-03
  0.79336348E-03  0.78454516E-03 -0.10830283E-02
  0.21070976E-02  0.18846517E-02 -0.74470774E-04
  0.19580816E-02 -0.52037627E-03 -0.18112689E-04
 -0.16879485E-02 -0.61254885E-03  0.48485884E-03
 -0.15965363E-02 -0.60258363E-03  0.27669347E-04
  0.38628283E-02 -0.61612765E-03 -0.10317696E-03
  0.13896054E-02 -0.25254925E-02  0.39402655E-03
  0.86541022E-03  0.16195320E-02  0.28845429E-03
 -0.11237182E-02 -0.19571482E-02  0.26667613E-03
  0.12346735E-02  0.28781149E-03 -0.69508096E-03
 -0.16729773E-02 -0.32517603E-02 -0.45507600E-03
 -0.19970845E-02 -0.31833878E-02 -0.44887860E-04
  0.13867390E-02 -0.14452992E-02 -0.27107774E-04
 -0.25775351E-02  0.20540003E-02  0.10816158E-02
  0.27409556E-03 -0.17692964E-02 -0.17086587E-03
 -0.12320923E-02  0.13839883E-02 -0.48387731E-03
 -0.19646528E-02  0.10502700E-02  0.32704509E-04
  0.11938938E-02 -0.17487653E-02  0.28695501E-03
  0.14219086E-03 -0.58333512E-03  0.36942225E-03
  0.15093489E-02 -0.32366682E-02  0.10875447E-02
  0.27386213E-03 -0.84716216E-03  0.57137753E-03
 -0.67822811E-03 -0.46606181E-03 -0.11728626E-03
  0.11935004E-02  0.13128576E-02 -0.50633195E-03
 -0.12287679E-02 -0.22294889E-03  0.21406567E-03
 -0.26158420E-02 -0.19253355E-02 -0.72028924E-04
 -0.10786962E-02 -0.55095645E-04 -0.10123686E-03
 -0.37717042E-03 -0.12918975E-03  0.27976782E-04
 -0.27641525E-03 -0.22992535E-03  0.62451101E-04
  0.30414005E-03  0.90372368E-04 -0.13903538E-04
 -0.47025190E-03 -0.52937121E-04 -0.13645563E-03
 -0.25206964E-03  0.30902941E-03 -0.80598709E-04
  0.24747810E-03 -0.26465074E-03 -0.10813369E-03
 -0.62250097E-03  0.38668463E-03  0.62535628E-04
 -0.43684394E-03  0.12809142E-03 -0.80953221E-04
  0.19916444E-04  0.33643852E-03 -0.22691456E-03
  0.12155067E-02 -0.23963491E-03  0.68816818E-05
 -0.20721064E-03 -0.49796303E-03  0.12970469E-03
 -0.32803771E-03 -0.50697744E-03 -0.19157789E-04
 -0.84233962E-04 -0.21230538E-03  0.14537967E-04
  0.13942456E-02 -0.11831487E-02  0.92748457E-04
  0.36936582E-03  0.26507382E-03 -0.71275546E-04
  0.22666610E-03  0.29127605E-04  0.19231583E-04
  0.10940196E-03  0.77508246E-04  0.11785225E-03
  0.91295750E-04  0.52459154E-03  0.12751514E-03
 -0.22427559E-04 -0.28540152E-03  0.99864447E-04
 -0.55365986E-03 -0.34857392E-03 -0.15958886E-03
 -0.43542629E-03 -0.32169655E-03  0.10116272E-03
  0.79829012E-03  0.73022094E-04  0.19189241E-06
  0.76671277E-03  0.70516594E-03 -0.76891747E-04
  0.00000000E+00  0.00000000E+00  0.00000000E+00
  0.00000000E+00  0.00000000E+00  0.00000000E+00
  0.00000000E+00  0.00000000E+00  0.00000000E+00
  0.00000000E+00  0.00000000E+00  0.00000000E+00
  0.00000000E+00  0.00000000E+00  0.00000000E+00
  0.00000000E+00  0.00000000E+00  0.00000000E+00
  0.00000000E+00  0.00000000E+00  0.00000000E+00
  0.00000000E+00  0.00000000E+00  0.00000000E+00
  0.00000000E+00  0.00000000E+00  0.00000000E+00
  0.00000000E+00  0.00000000E+00  0.00000000E+00
  0.00000000E+00  0.00000000E+00  0.00000000E+00
  0.00000000E+00  0.00000000E+00  0.00000000E+00
  0.00000000E+00  0.00000000E+00  0.00000000E+00
  0.00000000E+00  0.00000000E+00  0.00000000E+00
  0.00000000E+00  0.00000000E+00  0.00000000E+00
  0.00000000E+00  0.00000000E+00  0.00000000E+00
  0.00000000E+00  0.00000000E+00  0.00000000E+00
  0.00000000E+00  0.00000000E+00  0.00000000E+00
  0.00000000E+00  0.00000000E+00  0.00000000E+00
  0.00000000E+00  0.00000000E+00  0.00000000E+00
  0.00000000E+00  0.00000000E+00  0.00000000E+00
  0.00000000E+00  0.00000000E+00  0.00000000E+00
  0.00000000E+00  0.00000000E+00  0.00000000E+00
  0.00000000E+00  0.00000000E+00  0.00000000E+00
 -0.16476001E-03 -0.25338843E-05  0.26306396E-04
  0.10988745E-03  0.12795100E-03 -0.39265868E-04
 -0.26380247E-03 -0.34157263E-04  0.46802439E-04
  0.11456695E-03 -0.89900795E-04 -0.17667004E-04
 -0.68301465E-04  0.93747519E-04 -0.25117545E-04
 -0.38767205E-04  0.12737943E-03 -0.43711989E-04
  0.29424741E-03 -0.58012509E-04 -0.25655770E-04
 -0.21677101E-04 -0.17861783E-03 -0.29584786E-05
 -0.24218391E-03  0.14358482E-03 -0.31581073E-06
  0.15943824E-03  0.11227240E-03 -0.52306994E-05
 -0.13066163E-03  0.14358631E-03  0.27449524E-06
 -0.17388951E-03  0.20630679E-03  0.36621522E-04
  0.00000000E+00  0.00000000E+00  0.00000000E+00
  0.00000000E+00  0.00000000E+00  0.00000000E+00
  0.00000000E+00  0.00000000E+00  0.00000000E+00
  0.00000000E+00  0.00000000E+00  0.00000000E+00
  0.00000000E+00  0.00000000E+00  0.00000000E+00
  0.00000000E+00  0.00000000E+00  0.00000000E+00
  0.00000000E+00  0.00000000E+00  0.00000000E+00
  0.00000000E+00  0.00000000E+00  0.00000000E+00
  0.00000000E+00  0.00000000E+00  0.00000000E+00
  0.00000000E+00  0.00000000E+00  0.00000000E+00
  0.00000000E+00  0.00000000E+00  0.00000000E+00
  0.00000000E+00  0.00000000E+00  0.00000000E+00
  0.00000000E+00  0.00000000E+00  0.00000000E+00
  0.00000000E+00  0.00000000E+00  0.00000000E+00
  0.00000000E+00  0.00000000E+00  0.00000000E+00
  0.00000000E+00  0.00000000E+00  0.00000000E+00
  0.00000000E+00  0.00000000E+00  0.00000000E+00
  0.00000000E+00  0.00000000E+00  0.00000000E+00
  0.00000000E+00  0.00000000E+00  0.00000000E+00
  0.00000000E+00  0.00000000E+00  0.00000000E+00
  0.00000000E+00  0.00000000E+00  0.00000000E+00
  0.00000000E+00  0.00000000E+00  0.00000000E+00
  0.00000000E+00  0.00000000E+00  0.00000000E+00
  0.00000000E+00  0.00000000E+00  0.00000000E+00
  0.00000000E+00  0.00000000E+00  0.00000000E+00
  0.00000000E+00  0.00000000E+00  0.00000000E+00
  0.00000000E+00  0.00000000E+00  0.00000000E+00
  0.00000000E+00  0.00000000E+00  0.00000000E+00
  0.00000000E+00  0.00000000E+00  0.00000000E+00
  0.00000000E+00  0.00000000E+00  0.00000000E+00
  0.00000000E+00  0.00000000E+00  0.00000000E+00
  0.00000000E+00  0.00000000E+00  0.00000000E+00
  0.00000000E+00  0.00000000E+00  0.00000000E+00
  0.00000000E+00  0.00000000E+00  0.00000000E+00
  0.00000000E+00  0.00000000E+00  0.00000000E+00
  0.00000000E+00  0.00000000E+00  0.00000000E+00
  0.00000000E+00  0.00000000E+00  0.00000000E+00
  0.00000000E+00  0.00000000E+00  0.00000000E+00
  0.00000000E+00  0.00000000E+00  0.00000000E+00
  0.00000000E+00  0.00000000E+00  0.00000000E+00
  0.00000000E+00  0.00000000E+00  0.00000000E+00
  0.00000000E+00  0.00000000E+00  0.00000000E+00
  0.00000000E+00  0.00000000E+00  0.00000000E+00
  0.00000000E+00  0.00000000E+00  0.00000000E+00
  0.00000000E+00  0.00000000E+00  0.00000000E+00
  0.00000000E+00  0.00000000E+00  0.00000000E+00
  0.00000000E+00  0.00000000E+00  0.00000000E+00
  0.00000000E+00  0.00000000E+00  0.00000000E+00
  0.00000000E+00  0.00000000E+00  0.00000000E+00
  0.00000000E+00  0.00000000E+00  0.00000000E+00
  0.00000000E+00  0.00000000E+00  0.00000000E+00
  0.00000000E+00  0.00000000E+00  0.00000000E+00
  0.00000000E+00  0.00000000E+00  0.00000000E+00
  0.00000000E+00  0.00000000E+00  0.00000000E+00
  0.00000000E+00  0.00000000E+00  0.00000000E+00
  0.00000000E+00  0.00000000E+00  0.00000000E+00
  0.00000000E+00  0.00000000E+00  0.00000000E+00
  0.00000000E+00  0.00000000E+00  0.00000000E+00
  0.00000000E+00  0.00000000E+00  0.00000000E+00
  0.00000000E+00  0.00000000E+00  0.00000000E+00
  0.00000000E+00  0.00000000E+00  0.00000000E+00
  0.00000000E+00  0.00000000E+00  0.00000000E+00
  0.00000000E+00  0.00000000E+00  0.00000000E+00
  0.00000000E+00  0.00000000E+00  0.00000000E+00
  0.00000000E+00  0.00000000E+00  0.00000000E+00
  0.00000000E+00  0.00000000E+00  0.00000000E+00
  0.00000000E+00  0.00000000E+00  0.00000000E+00
  0.00000000E+00  0.00000000E+00  0.00000000E+00
  0.00000000E+00  0.00000000E+00  0.00000000E+00
  0.00000000E+00  0.00000000E+00  0.00000000E+00
  0.00000000E+00  0.00000000E+00  0.00000000E+00
  0.00000000E+00  0.00000000E+00  0.00000000E+00
  0.00000000E+00  0.00000000E+00  0.00000000E+00
  0.00000000E+00  0.00000000E+00  0.00000000E+00
  0.00000000E+00  0.00000000E+00  0.00000000E+00
  0.00000000E+00  0.00000000E+00  0.00000000E+00
  0.00000000E+00  0.00000000E+00  0.00000000E+00
  0.00000000E+00  0.00000000E+00  0.00000000E+00
  0.00000000E+00  0.00000000E+00  0.00000000E+00
  0.00000000E+00  0.00000000E+00  0.00000000E+00
  0.00000000E+00  0.00000000E+00  0.00000000E+00
  0.00000000E+00  0.00000000E+00  0.00000000E+00
  0.00000000E+00  0.00000000E+00  0.00000000E+00
  0.00000000E+00  0.00000000E+00  0.00000000E+00
  0.00000000E+00  0.00000000E+00  0.00000000E+00
  0.00000000E+00  0.00000000E+00  0.00000000E+00
  0.00000000E+00  0.00000000E+00  0.00000000E+00
  0.00000000E+00  0.00000000E+00  0.00000000E+00
  0.00000000E+00  0.00000000E+00  0.00000000E+00
  0.00000000E+00  0.00000000E+00  0.00000000E+00
  0.00000000E+00  0.00000000E+00  0.00000000E+00
  0.00000000E+00  0.00000000E+00  0.00000000E+00
  0.00000000E+00  0.00000000E+00  0.00000000E+00
  0.00000000E+00  0.00000000E+00  0.00000000E+00
  0.00000000E+00  0.00000000E+00  0.00000000E+00
  0.00000000E+00  0.00000000E+00  0.00000000E+00
  0.00000000E+00  0.00000000E+00  0.00000000E+00
  0.00000000E+00  0.00000000E+00  0.00000000E+00
  0.00000000E+00  0.00000000E+00  0.00000000E+00
  0.00000000E+00  0.00000000E+00  0.00000000E+00
  0.00000000E+00  0.00000000E+00  0.00000000E+00
  0.00000000E+00  0.00000000E+00  0.00000000E+00
  0.00000000E+00  0.00000000E+00  0.00000000E+00
  0.00000000E+00  0.00000000E+00  0.00000000E+00
  0.00000000E+00  0.00000000E+00  0.00000000E+00
  0.00000000E+00  0.00000000E+00  0.00000000E+00
  0.00000000E+00  0.00000000E+00  0.00000000E+00
  0.00000000E+00  0.00000000E+00  0.00000000E+00
