 H  O Pt                                
   1.00000000000000     
     8.3458886400000001    0.0000000000000000    0.0000000000000000
     0.0000000000000000    9.6370021099999992    0.0000000000000000
     0.0000000000000000    0.0000000000000000   32.5429263600000027
   H    O    Pt
    48    24    36
Selective dynamics
Direct
  0.8881991299999967  0.2551968900000006  0.4955478899999974   T   T   T
  0.1389369199999990  0.3247800600000019  0.4927618800000033   T   T   T
  0.4800813599999998  0.4936114500000031  0.5016080299999999   T   T   T
  0.7239862799999983  0.0353063299999974  0.5033726999999999   T   T   T
  0.1643583199999981  0.0695292199999997  0.4933089199999969   T   T   T
  0.2739629699999995  0.0049745600000008  0.4525810000000021   T   T   T
  0.7750601999999986  0.2239083099999988  0.5480709099999999   T   T   T
  0.7135644600000006  0.3093512599999997  0.5093216599999977   T   T   T
  0.0082687800000016  0.1861495400000024  0.6429985500000015   T   T   T
  0.9758106999999967  0.1744014900000010  0.5027161499999977   T   T   T
  0.4581339499999970  0.4747689699999995  0.6099689300000009   T   T   T
  0.5642291699999973  0.4747135100000008  0.5701245999999998   T   T   T
  0.1749587799999972  0.3984853299999997  0.6235262800000001   T   T   T
  0.1352734800000022  0.0599992599999979  0.6205272899999983   T   T   T
  0.6846172999999993  0.1384351399999986  0.6081256800000006   T   T   T
  0.6831518899999978  0.3025315300000031  0.6082764299999965   T   T   T
  0.1423219799999984  0.1387997400000032  0.7224316300000027   T   T   T
  0.0864332800000014  0.1899902299999994  0.7808934399999998   T   T   T
  0.4988924700000013  0.4660595599999979  0.7262581600000004   T   T   T
  0.8464401299999977  0.9856016399999987  0.7487991599999972   T   T   T
  0.2135615299999998  0.3958027899999976  0.7214131899999998   T   T   T
  0.2704208600000015  0.8824181499999995  0.6830617500000002   T   T   T
  0.7602918500000015  0.2159277100000025  0.7808357700000030   T   T   T
  0.7122979800000024  0.3030845600000021  0.7424086400000007   T   T   T
  0.8888661299999967  0.7620430799999980  0.4954634200000001   T   T   T
  0.1383919499999990  0.8320727899999980  0.4928617699999975   T   T   T
  0.4605808499999995  0.0881335999999990  0.4918185000000008   T   T   T
  0.6467352000000020  0.5670148600000005  0.5090327899999991   T   T   T
  0.2075621099999978  0.5900867599999984  0.4884528600000024   T   T   T
  0.2717572500000003  0.5065176199999968  0.4516226300000028   T   T   T
  0.7754045399999967  0.7310514999999995  0.5480523599999998   T   T   T
  0.7135393399999970  0.8194854199999995  0.5090467200000006   T   T   T
  0.0054755099999966  0.6891413999999969  0.6411794699999973   T   T   T
  0.9752761499999991  0.6812358399999994  0.5026911300000023   T   T   T
  0.4564494500000009  0.0745966499999966  0.6101213900000033   T   T   T
  0.5633755699999980  0.0749741200000003  0.5696004300000013   T   T   T
  0.1800458800000015  0.8903034800000000  0.6238927599999968   T   T   T
  0.1758449800000008  0.5628185999999999  0.6233158799999998   T   T   T
  0.6839900900000018  0.6442067699999967  0.6078603899999990   T   T   T
  0.6824881300000030  0.8096420099999975  0.6082643499999989   T   T   T
  0.1434731200000030  0.6449865599999995  0.7225077100000021   T   T   T
  0.0871171100000012  0.6968655599999991  0.7808901699999993   T   T   T
  0.5153663500000008  0.0560143399999973  0.7286866199999977   T   T   T
  0.6605736699999980  0.5474114700000001  0.7342347599999997   T   T   T
  0.1619154799999976  0.0132368200000030  0.7274253499999972   T   T   T
  0.2709528299999988  0.4815216300000031  0.6839725399999992   T   T   T
  0.7602771199999978  0.7229112600000036  0.7808536399999966   T   T   T
  0.7119030899999998  0.8092108399999987  0.7424304899999967   T   T   T
  0.0946877900000018  0.2332960900000032  0.4877002799999985   T   T   T
  0.5892335500000030  0.4797328900000011  0.5131473200000016   T   T   T
  0.2692914100000010  0.5051174999999972  0.4817554099999981   T   T   T
  0.7680658499999993  0.2260320800000031  0.5180825200000001   T   T   T
  0.1434076099999970  0.2560730800000002  0.7542047800000020   T   T   T
  0.5706388700000034  0.4736953600000007  0.6004069199999975   T   T   T
  0.2433780400000032  0.4808285100000020  0.6276237499999979   T   T   T
  0.7573569600000027  0.2249608099999989  0.6030305499999997   T   T   T
  0.1343143300000023  0.2975084699999968  0.6859185699999983   T   T   T
  0.6150770100000003  0.4547848599999966  0.7306863399999983   T   T   T
  0.3302888400000015  0.8657469799999973  0.7091470599999994   T   T   T
  0.7696809500000015  0.2170575700000015  0.7512192499999983   T   T   T
  0.0976454899999979  0.7368269999999981  0.4876835000000028   T   T   T
  0.5297388600000019  0.1080368699999994  0.5287767000000017   T   T   T
  0.3140725299999971  0.1111919700000001  0.4752159399999982   T   T   T
  0.7672162300000025  0.7267173299999996  0.5181139700000017   T   T   T
  0.1445335200000031  0.7621495200000012  0.7543112399999998   T   T   T
  0.5664307600000029  0.0670568900000035  0.6004798000000022   T   T   T
  0.2799778600000025  0.0900235300000034  0.6301014399999971   T   T   T
  0.7510517199999995  0.7273503700000035  0.6030198899999988   T   T   T
  0.1340039800000028  0.8078769500000007  0.6875828200000029   T   T   T
  0.4132061800000031  0.1185159899999988  0.7134390299999964   T   T   T
  0.2733765500000018  0.4827781400000006  0.7144262699999970   T   T   T
  0.7679634400000026  0.7237900900000014  0.7509853800000030   T   T   T
  0.1666666699999979  0.0833333300000021  0.2191065600000002   F   F   F
  0.5000000000000000  0.0833333300000021  0.2191065600000002   F   F   F
  0.8333333300000021  0.0833333300000021  0.2191065600000002   F   F   F
  0.0000000000000000  0.3333333300000021  0.2191065600000002   F   F   F
  0.3333333300000021  0.3333333300000021  0.2191065600000002   F   F   F
  0.6666666699999979  0.3333333300000021  0.2191065600000002   F   F   F
  0.1666666699999979  0.5833333300000021  0.2191065600000002   F   F   F
  0.5000000000000000  0.5833333300000021  0.2191065600000002   F   F   F
  0.8333333300000021  0.5833333300000021  0.2191065600000002   F   F   F
  0.0000000000000000  0.8333333300000021  0.2191065600000002   F   F   F
  0.3333333300000021  0.8333333300000021  0.2191065600000002   F   F   F
  0.6666666699999979  0.8333333300000021  0.2191065600000002   F   F   F
  0.0000000000000000  0.1666666699999979  0.2889055500000026   F   F   F
  0.3333333300000021  0.1666666699999979  0.2889055500000026   F   F   F
  0.6666666699999979  0.1666666699999979  0.2889055500000026   F   F   F
  0.1666666699999979  0.4166666699999979  0.2889055500000026   F   F   F
  0.5000000000000000  0.4166666699999979  0.2889055500000026   F   F   F
  0.8333333300000021  0.4166666699999979  0.2889055500000026   F   F   F
  0.0000000000000000  0.6666666699999979  0.2889055500000026   F   F   F
  0.3333333300000021  0.6666666699999979  0.2889055500000026   F   F   F
  0.6666666699999979  0.6666666699999979  0.2889055500000026   F   F   F
  0.1666666699999979  0.9166666699999979  0.2889055500000026   F   F   F
  0.5000000000000000  0.9166666699999979  0.2889055500000026   F   F   F
  0.8333333300000021  0.9166666699999979  0.2889055500000026   F   F   F
  0.0000000000000000  0.0000000000000000  0.3587045299999971   T   T   T
  0.3333333300000021  0.0000000000000000  0.3587045299999971   T   T   T
  0.6666666699999979  0.0000000000000000  0.3587045299999971   T   T   T
  0.1666666699999979  0.2500000000000000  0.3587045299999971   T   T   T
  0.5000000000000000  0.2500000000000000  0.3587045299999971   T   T   T
  0.8333333300000021  0.2500000000000000  0.3587045299999971   T   T   T
  0.0000000000000000  0.5000000000000000  0.3587045299999971   T   T   T
  0.3333333300000021  0.5000000000000000  0.3587045299999971   T   T   T
  0.6666666699999979  0.5000000000000000  0.3587045299999971   T   T   T
  0.1666666699999979  0.7500000000000000  0.3587045299999971   T   T   T
  0.5000000000000000  0.7500000000000000  0.3587045299999971   T   T   T
  0.8333333300000021  0.7500000000000000  0.3587045299999971   T   T   T
 
  0.00000000E+00  0.00000000E+00  0.00000000E+00
  0.00000000E+00  0.00000000E+00  0.00000000E+00
  0.00000000E+00  0.00000000E+00  0.00000000E+00
  0.00000000E+00  0.00000000E+00  0.00000000E+00
  0.00000000E+00  0.00000000E+00  0.00000000E+00
  0.00000000E+00  0.00000000E+00  0.00000000E+00
  0.00000000E+00  0.00000000E+00  0.00000000E+00
  0.00000000E+00  0.00000000E+00  0.00000000E+00
  0.00000000E+00  0.00000000E+00  0.00000000E+00
  0.00000000E+00  0.00000000E+00  0.00000000E+00
  0.00000000E+00  0.00000000E+00  0.00000000E+00
  0.00000000E+00  0.00000000E+00  0.00000000E+00
  0.00000000E+00  0.00000000E+00  0.00000000E+00
  0.00000000E+00  0.00000000E+00  0.00000000E+00
  0.00000000E+00  0.00000000E+00  0.00000000E+00
  0.00000000E+00  0.00000000E+00  0.00000000E+00
  0.00000000E+00  0.00000000E+00  0.00000000E+00
  0.00000000E+00  0.00000000E+00  0.00000000E+00
  0.00000000E+00  0.00000000E+00  0.00000000E+00
  0.00000000E+00  0.00000000E+00  0.00000000E+00
  0.00000000E+00  0.00000000E+00  0.00000000E+00
  0.00000000E+00  0.00000000E+00  0.00000000E+00
  0.00000000E+00  0.00000000E+00  0.00000000E+00
  0.00000000E+00  0.00000000E+00  0.00000000E+00
  0.00000000E+00  0.00000000E+00  0.00000000E+00
  0.00000000E+00  0.00000000E+00  0.00000000E+00
  0.00000000E+00  0.00000000E+00  0.00000000E+00
  0.00000000E+00  0.00000000E+00  0.00000000E+00
  0.00000000E+00  0.00000000E+00  0.00000000E+00
  0.00000000E+00  0.00000000E+00  0.00000000E+00
  0.00000000E+00  0.00000000E+00  0.00000000E+00
  0.00000000E+00  0.00000000E+00  0.00000000E+00
  0.00000000E+00  0.00000000E+00  0.00000000E+00
  0.00000000E+00  0.00000000E+00  0.00000000E+00
  0.00000000E+00  0.00000000E+00  0.00000000E+00
  0.00000000E+00  0.00000000E+00  0.00000000E+00
  0.00000000E+00  0.00000000E+00  0.00000000E+00
  0.00000000E+00  0.00000000E+00  0.00000000E+00
  0.00000000E+00  0.00000000E+00  0.00000000E+00
  0.00000000E+00  0.00000000E+00  0.00000000E+00
  0.00000000E+00  0.00000000E+00  0.00000000E+00
  0.00000000E+00  0.00000000E+00  0.00000000E+00
  0.00000000E+00  0.00000000E+00  0.00000000E+00
  0.00000000E+00  0.00000000E+00  0.00000000E+00
  0.00000000E+00  0.00000000E+00  0.00000000E+00
  0.00000000E+00  0.00000000E+00  0.00000000E+00
  0.00000000E+00  0.00000000E+00  0.00000000E+00
  0.00000000E+00  0.00000000E+00  0.00000000E+00
  0.00000000E+00  0.00000000E+00  0.00000000E+00
  0.00000000E+00  0.00000000E+00  0.00000000E+00
  0.00000000E+00  0.00000000E+00  0.00000000E+00
  0.00000000E+00  0.00000000E+00  0.00000000E+00
  0.00000000E+00  0.00000000E+00  0.00000000E+00
  0.00000000E+00  0.00000000E+00  0.00000000E+00
  0.00000000E+00  0.00000000E+00  0.00000000E+00
  0.00000000E+00  0.00000000E+00  0.00000000E+00
  0.00000000E+00  0.00000000E+00  0.00000000E+00
  0.00000000E+00  0.00000000E+00  0.00000000E+00
  0.00000000E+00  0.00000000E+00  0.00000000E+00
  0.00000000E+00  0.00000000E+00  0.00000000E+00
  0.00000000E+00  0.00000000E+00  0.00000000E+00
  0.00000000E+00  0.00000000E+00  0.00000000E+00
  0.00000000E+00  0.00000000E+00  0.00000000E+00
  0.00000000E+00  0.00000000E+00  0.00000000E+00
  0.00000000E+00  0.00000000E+00  0.00000000E+00
  0.00000000E+00  0.00000000E+00  0.00000000E+00
  0.00000000E+00  0.00000000E+00  0.00000000E+00
  0.00000000E+00  0.00000000E+00  0.00000000E+00
  0.00000000E+00  0.00000000E+00  0.00000000E+00
  0.00000000E+00  0.00000000E+00  0.00000000E+00
  0.00000000E+00  0.00000000E+00  0.00000000E+00
  0.00000000E+00  0.00000000E+00  0.00000000E+00
  0.00000000E+00  0.00000000E+00  0.00000000E+00
  0.00000000E+00  0.00000000E+00  0.00000000E+00
  0.00000000E+00  0.00000000E+00  0.00000000E+00
  0.00000000E+00  0.00000000E+00  0.00000000E+00
  0.00000000E+00  0.00000000E+00  0.00000000E+00
  0.00000000E+00  0.00000000E+00  0.00000000E+00
  0.00000000E+00  0.00000000E+00  0.00000000E+00
  0.00000000E+00  0.00000000E+00  0.00000000E+00
  0.00000000E+00  0.00000000E+00  0.00000000E+00
  0.00000000E+00  0.00000000E+00  0.00000000E+00
  0.00000000E+00  0.00000000E+00  0.00000000E+00
  0.00000000E+00  0.00000000E+00  0.00000000E+00
  0.00000000E+00  0.00000000E+00  0.00000000E+00
  0.00000000E+00  0.00000000E+00  0.00000000E+00
  0.00000000E+00  0.00000000E+00  0.00000000E+00
  0.00000000E+00  0.00000000E+00  0.00000000E+00
  0.00000000E+00  0.00000000E+00  0.00000000E+00
  0.00000000E+00  0.00000000E+00  0.00000000E+00
  0.00000000E+00  0.00000000E+00  0.00000000E+00
  0.00000000E+00  0.00000000E+00  0.00000000E+00
  0.00000000E+00  0.00000000E+00  0.00000000E+00
  0.00000000E+00  0.00000000E+00  0.00000000E+00
  0.00000000E+00  0.00000000E+00  0.00000000E+00
  0.00000000E+00  0.00000000E+00  0.00000000E+00
  0.00000000E+00  0.00000000E+00  0.00000000E+00
  0.00000000E+00  0.00000000E+00  0.00000000E+00
  0.00000000E+00  0.00000000E+00  0.00000000E+00
  0.00000000E+00  0.00000000E+00  0.00000000E+00
  0.00000000E+00  0.00000000E+00  0.00000000E+00
  0.00000000E+00  0.00000000E+00  0.00000000E+00
  0.00000000E+00  0.00000000E+00  0.00000000E+00
  0.00000000E+00  0.00000000E+00  0.00000000E+00
  0.00000000E+00  0.00000000E+00  0.00000000E+00
  0.00000000E+00  0.00000000E+00  0.00000000E+00
  0.00000000E+00  0.00000000E+00  0.00000000E+00
  0.00000000E+00  0.00000000E+00  0.00000000E+00
