 H  O Pt 
 1.0000000000000000
     8.3458886400000001    0.0000000000000000    0.0000000000000000
     0.0000000000000000    9.6370021099999992    0.0000000000000000
     0.0000000000000000    0.0000000000000000   32.5429263600000027
  48  24  36
Selective dynamics
Cartesian
  7.4128110291248825  2.4593329673954378 16.1265784921233823   T   T   T
  1.1595520623045887  3.1299061235059260 16.0359135738551579   T   T   T
  4.0067055686997506  4.7569345851701588 16.3237931818746702   T   T   T
  6.0423088697678589  0.3402471767063562 16.3812207077343750   T   T   T
  1.3717162357774848  0.6700532398466542 16.0537158562911308   T   T   T
  2.2864644391036606  0.0479398452163216 14.7283101549351620   T   T   T
  6.4685661184961276  2.1578048559165337 17.8358312641881867   T   T   T
  5.9553295206217340  2.9812187453511587 16.5748172749329576   T   T   T
  0.0690103170686592  1.7939235097555293 20.9250544622367762   T   T   T
  8.1440074359204484  1.6807075271171437 16.3598546494327159   T   T   T
  3.8235349289033280  4.5753495656525267 19.8501739708779965   T   T   T
  4.7089938202596286  4.5748150975155060 18.5535228738244555   T   T   T
  1.4601864944702594  3.8402039660140463 20.2913698135647422   T   T   T
  1.1289774000252673  0.5782129952184385 20.1937739028403662   T   T   T
  5.7137397468174722  1.3340997362781455 19.7901892218649280   T   T   T
  5.7015095981455293  2.9154969929515282 19.7950950680136941   T   T   T
  1.1878033961043071  1.3376133872474514 23.5100393352247679   T   T   T
  0.7213625296699392  1.8309362473893853 25.4125577129270823   T   T   T
  4.1637009979545407  4.4914169631056708 23.6345658192290990   T   T   T
  7.0642950654071228  9.4982450842994588 24.3681159223098618   T   T   T
  1.7823607471680192  3.8143523223738867 23.4768963173026926   T   T   T
  2.2569023834930304  8.5038655734522965 22.2288282295827315   T   T   T
  6.3453111139995837  2.0808957968774680 25.4106809623639016   T   T   T
  5.9447596195769474  2.9208265442284214 24.1601497005477519   T   T   T
  7.4183777368477637  7.3438107698708981 16.1238295911337524   T   T   T
  1.1550038033724481  8.0186872329035861 16.0391642867692568   T   T   T
  3.8439564838165441  0.8493436891618960 16.0052132279856600   T   T   T
  5.3975799587681275  5.4643234022213543 16.5654165997953449   T   T   T
  1.7322902559434303  5.6866673512030639 15.8956854533113905   T   T   T
  2.2680557456126400  4.8813113726921777 14.6971219905995287   T   T   T
  6.4714399417904263  7.0451448480186638 17.8352275929042108   T   T   T
  5.9551198718990976  7.8973827216542354 16.5658699227595392   T   T   T
  0.0456979967072064  6.6412571258883535 20.8658562757538313   T   T   T
  8.1395461411479353  6.5650712274876222 16.3590404254151878   T   T   T
  3.8094762794892478  0.7188880734489315 19.8551354654308412   T   T   T
  4.7018697697165255  0.7225257526353932 18.5364648481143384   T   T   T
  1.5026428645708032  8.5798565153003423 20.3032961452171570   T   T   T
  1.4675826209830274  5.4238840357472453 20.2845227818585983   T   T   T
  5.7085051220035776  6.2082220017662841 19.7815559089308834   T   T   T
  5.6959699311018426  7.8025217587146409 19.7947019494632670   T   T   T
  1.1974106823533568  6.2157368396416413 23.5125152010622394   T   T   T
  0.7270696986986304  6.7156948721063312 25.4124512975578867   T   T   T
  4.3011901659032636  0.5398103127702574 23.7135950141773044   T   T   T
  5.5130742883361092  5.2754054914282014 23.8941477256322763   T   T   T
  1.3513285651721472  0.1275632622696902 23.6725495974472260   T   T   T
  2.2613421458728511  4.6404249643206388 22.2584680014821537   T   T   T
  6.3451881790599174  6.9666973379627581 25.4112625044579516   T   T   T
  5.9414639116118977  7.7983665725148716 24.1608607634887207   T   T   T
  0.7902537509077056  2.2482749115847498 15.8711942977913818   T   T   T
  4.9176775912518718  4.6231868731663974 16.6993154465913562   T   T   T
  2.2474761195685824  4.8678184132979245 15.6777308311616093   T   T   T
  6.4101920522869449  2.1782716318876885 16.8599212967632290   T   T   T
  1.1968639431885504  2.4677768122741988 24.5440306159000023   T   T   T
  4.7624884626754369  4.5650031838172094 19.5389981835944120   T   T   T
  2.0312060192614654  4.6337453654181555 20.4247134780370523   T   T   T
  6.3208168488889340  2.1679478006373092 19.6243787814803028   T   T   T
  1.1209724409362114  2.8670897531328716 22.3217975124665067   T   T   T
  5.1333642304841671  4.3827626554160544 23.7786717548779230   T   T   T
  2.7565538776747776  8.3432054729861278 23.0777205519905060   T   T   T
  6.4236714970294084  2.0917842600814724 24.4468727329644331   T   T   T
  0.8149383857382336  7.1008033537049693 15.8706482274870613   T   T   T
  4.4211415338405509  1.0411515441477956 17.2079412089838115   T   T   T
  2.6212143602630595  1.0715572495050567 15.4649173405181806   T   T   T
  6.4031012183806277  7.0033764425835665 16.8609447717972500   T   T   T
  1.2062606626672128  7.3448365323754867 24.5474951358402897   T   T   T
  4.7273680452305671  0.6462273904200377 19.5413699120675304   T   T   T
  2.3366640412255104  0.8675569485596483 20.5053447612499617   T   T   T
  6.2681940180004609  7.0094770503992807 19.6240318738853006   T   T   T
  1.1183822943967872  7.7855118717703640 22.3759570776611376   T   T   T
  3.4485727636397949  1.1421388456987389 23.2173938156398307   T   T   T
  2.2815702430873919  4.6525339538418748 23.2495214942594792   T   T   T
  6.4093373498313220  6.9751666245270902 24.4392619187766194   T   T   T
  1.3909814678196286  0.8030834770433262  7.1303686470729222   F   F   F
  4.1729443200000000  0.8030834770433262  7.1303686470729222   F   F   F
  6.9549071721803708  0.8030834770433262  7.1303686470729222   F   F   F
  0.0000000000000000  3.2123340045433260  7.1303686470729222   F   F   F
  2.7819628521803712  3.2123340045433260  7.1303686470729222   F   F   F
  5.5639257878196293  3.2123340045433260  7.1303686470729222   F   F   F
  1.3909814678196286  5.6215845320433253  7.1303686470729222   F   F   F
  4.1729443200000000  5.6215845320433253  7.1303686470729222   F   F   F
  6.9549071721803708  5.6215845320433253  7.1303686470729222   F   F   F
  0.0000000000000000  8.0308350595433247  7.1303686470729222   F   F   F
  2.7819628521803712  8.0308350595433247  7.1303686470729222   F   F   F
  5.5639257878196293  8.0308350595433247  7.1303686470729222   F   F   F
  0.0000000000000000  1.6061670504566734  9.4018320386452991   F   F   F
  2.7819628521803712  1.6061670504566734  9.4018320386452991   F   F   F
  5.5639257878196293  1.6061670504566734  9.4018320386452991   F   F   F
  1.3909814678196286  4.0154175779566739  9.4018320386452991   F   F   F
  4.1729443200000000  4.0154175779566739  9.4018320386452991   F   F   F
  6.9549071721803708  4.0154175779566739  9.4018320386452991   F   F   F
  0.0000000000000000  6.4246681054566732  9.4018320386452991   F   F   F
  2.7819628521803712  6.4246681054566732  9.4018320386452991   F   F   F
  5.5639257878196293  6.4246681054566732  9.4018320386452991   F   F   F
  1.3909814678196286  8.8339186329566726  9.4018320386452991   F   F   F
  4.1729443200000000  8.8339186329566726  9.4018320386452991   F   F   F
  6.9549071721803708  8.8339186329566726  9.4018320386452991   F   F   F
  0.0000000000000000  0.0000000000000000 11.6732951047884121   T   T   T
  2.7819628521803712  0.0000000000000000 11.6732951047884121   T   T   T
  5.5639257878196293  0.0000000000000000 11.6732951047884121   T   T   T
  1.3909814678196286  2.4092505274999998 11.6732951047884121   T   T   T
  4.1729443200000000  2.4092505274999998 11.6732951047884121   T   T   T
  6.9549071721803708  2.4092505274999998 11.6732951047884121   T   T   T
  0.0000000000000000  4.8185010549999996 11.6732951047884121   T   T   T
  2.7819628521803712  4.8185010549999996 11.6732951047884121   T   T   T
  5.5639257878196293  4.8185010549999996 11.6732951047884121   T   T   T
  1.3909814678196286  7.2277515824999998 11.6732951047884121   T   T   T
  4.1729443200000000  7.2277515824999998 11.6732951047884121   T   T   T
  6.9549071721803708  7.2277515824999998 11.6732951047884121   T   T   T
