 H  O Pt                                
   1.00000000000000     
     8.3458886423026613    0.0000000000000000    0.0000000000000000
     0.0000000000000000    9.6370021085201625    0.0000000000000000
     0.0000000000000000    0.0000000000000000   32.5429263608291137
   H    O    Pt
    48    24    36
Selective dynamics
Direct
  0.2108019331056721  0.4554306686613762  0.5080894837119421   T   T   T
  0.2124621446745911  0.4829864920675465  0.4623623197882013   T   T   T
  0.7684934910285389  0.8455622889279883  0.4644926098406703   T   T   T
  0.7880676652559194  0.6832005298478826  0.4733885175387089   T   T   T
  0.6207488386237697  0.9821824180294668  0.5094167246622737   T   T   T
  0.6020522147640656  0.0503380486491948  0.4653860644104283   T   T   T
  0.0595197134069406  0.7225224644744455  0.4568118859305995   T   T   T
  0.2247888080044816  0.8107398881640769  0.4578595775594038   T   T   T
  0.3116728832391668  0.2181707956851395  0.6740985038192893   T   T   T
  0.3965605766060594  0.0812051661020770  0.6790829102695433   T   T   T
  0.7901581136620388  0.5367965794882188  0.5920639844475412   T   T   T
  0.7723275488005459  0.6911058274707118  0.5977354961565520   T   T   T
  0.8647022309495792  0.4155013603149611  0.7569739881092887   T   T   T
  0.7556204681946797  0.3578560662273623  0.7221804096864416   T   T   T
  0.4606627538522522  0.7988114000348154  0.6963972014302126   T   T   T
  0.5985351379441837  0.9089570369398388  0.7007010063372693   T   T   T
  0.4602288803358732  0.7257099230360367  0.6178141875286794   T   T   T
  0.2364985247368386  0.1408160916220886  0.5629594568542459   T   T   T
  0.1998420104604769  0.8227696487260111  0.6357804905490583   T   T   T
  0.1533077632393693  0.9325202198911882  0.6726954913053204   T   T   T
  0.6723461042927354  0.5308843686560842  0.6575035218897992   T   T   T
  0.5600595140096694  0.3952272495140459  0.6664422931831822   T   T   T
  0.7977535969669907  0.0502674335597897  0.6267080568814082   T   T   T
  0.6332556541500821  0.1067868150641790  0.6395462790060604   T   T   T
  0.8208100379969716  0.1454784740429731  0.4963331648719548   T   T   T
  0.9694742970681509  0.1881958808091927  0.4689964938401612   T   T   T
  0.2617375515612684  0.0444263222652236  0.4662820566854702   T   T   T
  0.2801113744517589  0.9904851777863938  0.5103430888202036   T   T   T
  0.9554428410452308  0.8538660633163023  0.6223151077389999   T   T   T
  0.9757893383129852  0.9155471607767507  0.5822506737410724   T   T   T
  0.4908067898125708  0.3923853344729339  0.4757989200117959   T   T   T
  0.6074780050825406  0.2839213423959994  0.4584418557228616   T   T   T
  0.8553225621934918  0.3141870142545682  0.5550088826649832   T   T   T
  0.8574567003238865  0.2671606267303989  0.6031809505912652   T   T   T
  0.4640917003955686  0.2110293643125820  0.5853776080227834   T   T   T
  0.4755013569445855  0.2755397754239337  0.5423701322325107   T   T   T
  0.2645109442355609  0.4256255858643470  0.5876046847903001   T   T   T
  0.0895568663521550  0.4421224924835381  0.5831546967986725   T   T   T
  0.0663231319366735  0.1600197615746137  0.7111653187659597   T   T   T
  0.9398558048999739  0.1290142304360087  0.6788637642808716   T   T   T
  0.0895944466869462  0.1255430334009533  0.5382812832305397   T   T   T
  0.3281576337896945  0.6824710236162065  0.5855356430656277   T   T   T
  0.7243772837602593  0.4445734470313514  0.5039848543215801   T   T   T
  0.7184058437813156  0.5651504586241384  0.5353976206774721   T   T   T
  0.4923288300589490  0.9100687073830869  0.5738740859728101   T   T   T
  0.6695994013933624  0.9765019214050166  0.5784642842212790   T   T   T
  0.2767506379505855  0.6470060028915671  0.6941288547334891   T   T   T
  0.4517199600224301  0.5760456116381640  0.6949993468573240   T   T   T
  0.2383976171429370  0.4131056195200711  0.4821582994113276   T   T   T
  0.8297245788498399  0.7611822917912828  0.4586518464809837   T   T   T
  0.6770996225202701  0.9944310984272090  0.4824184389997317   T   T   T
  0.1761352805048177  0.7128132081862443  0.4487258857809255   T   T   T
  0.4128313036998708  0.1720272580879449  0.6649645226674205   T   T   T
  0.7131958829466575  0.6109491226225772  0.6034541216357507   T   T   T
  0.8412005179635631  0.3266407083376796  0.7414545929742279   T   T   T
  0.5119136592142797  0.8868837893703586  0.6832286976906192   T   T   T
  0.1551687790881457  0.0727120049699691  0.5564110244703658   T   T   T
  0.1238654823460025  0.8470987655427415  0.6581111528909985   T   T   T
  0.6192819187563771  0.4736928692584441  0.6785348416612711   T   T   T
  0.7480470399610408  0.1298039219726337  0.6398778623663331   T   T   T
  0.9318797384268669  0.1691794726260052  0.4975762936362215   T   T   T
  0.2961737023722497  0.9633707637850820  0.4811715755190171   T   T   T
  0.8864396788121934  0.8738138843663777  0.5976246092768666   T   T   T
  0.5732503372301402  0.3264857790946355  0.4844233535167201   T   T   T
  0.8809755770208333  0.3475602497981063  0.5835235775539829   T   T   T
  0.4164209728334222  0.2853219909252940  0.5685940159698903   T   T   T
  0.1900557293100524  0.4975777691362514  0.5812325270994068   T   T   T
  0.0573991799170433  0.1280008070024063  0.6833504902964644   T   T   T
  0.3633303880390329  0.7572765311617164  0.6031269949309925   T   T   T
  0.7800043968509729  0.5342679397973122  0.5115500373657020   T   T   T
  0.5597109070709815  0.9921426032465024  0.5672899150856707   T   T   T
  0.3893202177918458  0.6586760920276440  0.7034575160016061   T   T   T
  0.1666666700000000  0.0833333330000000  0.2412367800000000   F   F   F
  0.5000000000000000  0.0833333330000000  0.2412367800000000   F   F   F
  0.8333333300000000  0.0833333330000000  0.2412367800000000   F   F   F
  0.0000000000000000  0.3333333300000000  0.2412367800000000   F   F   F
  0.3333333300000000  0.3333333300000000  0.2412367800000000   F   F   F
  0.6666666700000000  0.3333333300000000  0.2412367800000000   F   F   F
  0.1666666700000000  0.5833333300000000  0.2412367800000000   F   F   F
  0.5000000000000000  0.5833333300000000  0.2412367800000000   F   F   F
  0.8333333300000000  0.5833333300000000  0.2412367800000000   F   F   F
  0.0000000000000000  0.8333333300000000  0.2412367800000000   F   F   F
  0.3333333300000000  0.8333333300000000  0.2412367800000000   F   F   F
  0.6666666700000000  0.8333333300000000  0.2412367800000000   F   F   F
  0.0000000000000000  0.1666666700000000  0.3110357600000000   F   F   F
  0.3333333300000000  0.1666666700000000  0.3110357600000000   F   F   F
  0.6666666700000000  0.1666666700000000  0.3110357600000000   F   F   F
  0.1666666700000000  0.4166666700000000  0.3110357600000000   F   F   F
  0.5000000000000000  0.4166666700000000  0.3110357600000000   F   F   F
  0.8333333300000000  0.4166666700000000  0.3110357600000000   F   F   F
  0.0000000000000000  0.6666666700000000  0.3110357600000000   F   F   F
  0.3333333300000000  0.6666666700000000  0.3110357600000000   F   F   F
  0.6666666700000000  0.6666666700000000  0.3110357600000000   F   F   F
  0.1666666700000000  0.9166666700000000  0.3110357600000000   F   F   F
  0.5000000000000000  0.9166666700000000  0.3110357600000000   F   F   F
  0.8333333300000000  0.9166666700000000  0.3110357600000000   F   F   F
  0.9988115445108997  0.0075305362351789  0.3856680444039836   T   T   T
  0.3450884499696707  0.9921666379140530  0.3836828065805583   T   T   T
  0.6702600327867955  0.0000343582511222  0.3818551353162699   T   T   T
  0.1573215801406992  0.2461946837839576  0.3883424347583142   T   T   T
  0.5067745286722278  0.2547367669208622  0.3847349850166005   T   T   T
  0.8331923904113571  0.2392684046826861  0.3823987574633207   T   T   T
  0.9731968623383034  0.4909476443815962  0.3869267339498546   T   T   T
  0.3125887544850660  0.4887380521826556  0.3808489301795935   T   T   T
  0.6455181995442135  0.5147811580185810  0.3858405633361457   T   T   T
  0.1546892421548601  0.7393303344518825  0.3816600099951866   T   T   T
  0.4830738337767981  0.7547990325910849  0.3833351146851794   T   T   T
  0.8194856895534689  0.7552475379531332  0.3823061449551830   T   T   T
 
  0.18684699E-01 -0.66626508E-02  0.12264930E-01
  0.56533480E-02  0.23117682E-02 -0.40620859E-02
 -0.41126687E-02 -0.15531922E-01 -0.19346451E-01
  0.16786836E-01  0.14364841E-01  0.23406264E-01
 -0.11795371E-01  0.36198398E-02 -0.16421558E-01
 -0.92813635E-02  0.96487474E-02 -0.35055841E-02
 -0.23963830E-01 -0.91682387E-02 -0.12261535E-01
  0.20902973E-01  0.23071270E-01  0.23677201E-01
 -0.14347508E-01 -0.74529101E-02 -0.10428518E-01
 -0.17326795E-01 -0.12296442E-01 -0.19584088E-01
 -0.21086208E-01  0.42524709E-02 -0.55547267E-02
  0.41431527E-01  0.23170282E-01 -0.23479121E-01
  0.37595814E-01 -0.88329953E-02 -0.85352799E-02
  0.23798196E-01  0.13438828E-01 -0.92662346E-05
  0.15298621E-01 -0.13953928E-01 -0.12784753E-01
 -0.70686014E-02  0.26486838E-01 -0.65024931E-02
 -0.20108065E-01  0.10686986E-01  0.91290996E-02
 -0.18135776E-01  0.12299653E-01  0.63101932E-02
  0.10814264E-01  0.58999308E-02 -0.30332098E-01
 -0.25495911E-02 -0.17178906E-01 -0.84608475E-03
 -0.76635896E-02  0.21055993E-01 -0.13575570E-01
 -0.36949141E-02  0.11348707E-01  0.24586833E-01
 -0.15982028E-01  0.42009823E-02 -0.17417368E-01
 -0.26863000E-01  0.41764615E-02 -0.27925863E-01
 -0.27165115E-01 -0.86888237E-02 -0.18692454E-01
  0.10767757E-01 -0.34629472E-02 -0.37208462E-02
 -0.18593272E-01 -0.95184512E-03  0.71879791E-02
 -0.26739614E-01 -0.78358124E-02  0.72661692E-02
  0.86245106E-02 -0.40379961E-02 -0.11728222E-01
  0.18344559E-01 -0.10274306E-01 -0.19031731E-01
  0.11596627E-01 -0.63118947E-02  0.24724054E-01
 -0.41702311E-02 -0.21057914E-01  0.33054475E-02
  0.22270793E-01  0.52359279E-02  0.11556152E-02
 -0.22175708E-01 -0.29111753E-01 -0.24559625E-01
 -0.30625407E-01 -0.11385287E-01 -0.16687507E-01
 -0.74506045E-02 -0.67103622E-02  0.19169715E-01
  0.11837480E-01  0.37716941E-02  0.32249856E-01
  0.78452833E-02  0.33954426E-02 -0.11561843E-01
 -0.17969250E-01  0.25639324E-01  0.94057394E-02
  0.28323810E-01  0.17369668E-01  0.77685235E-02
 -0.25809229E-01 -0.89925114E-02 -0.20893128E-01
 -0.56950676E-02 -0.26149919E-01  0.97957069E-02
  0.11641928E-01 -0.26941709E-01  0.26065890E-01
  0.14306059E-01 -0.11554549E-01  0.16788176E-02
  0.98924403E-02  0.16013774E-01 -0.63027782E-03
  0.28452703E-01 -0.39213501E-02 -0.56104541E-02
  0.10923038E-01 -0.26139956E-02  0.71620839E-02
 -0.34264285E-01 -0.51705940E-02 -0.30246050E-02
 -0.89516770E-02 -0.45488684E-03 -0.32892976E-02
 -0.23267823E-02 -0.85058587E-03  0.74248576E-04
 -0.26774158E-02 -0.25431733E-02  0.48613372E-02
  0.25100531E-02  0.19852837E-02  0.34736503E-05
 -0.51371744E-02 -0.19214013E-03 -0.34079656E-02
 -0.25131410E-02 -0.33211947E-02 -0.32011186E-02
  0.83007331E-03 -0.76581581E-03 -0.40851887E-02
 -0.55461001E-02  0.42303079E-02  0.25440179E-02
 -0.19979135E-02  0.61927506E-03 -0.15292331E-02
 -0.22689968E-02  0.36079976E-02 -0.55461069E-02
  0.86384339E-02 -0.46657559E-02  0.16134374E-02
  0.12582440E-02 -0.49698789E-02  0.38332266E-02
  0.10020878E-02 -0.29962466E-02  0.49147955E-03
 -0.15698848E-03 -0.26166615E-02  0.29046256E-03
  0.13430188E-01 -0.11897353E-01  0.59845028E-02
  0.23306038E-02  0.38331235E-02 -0.27901057E-02
  0.18543959E-02  0.45678424E-03 -0.29938517E-03
  0.31440842E-02 -0.14578045E-02  0.36468516E-02
 -0.17885392E-02  0.51180910E-02  0.42064807E-02
 -0.25313411E-02 -0.35080798E-02  0.18481717E-02
 -0.29509635E-02 -0.22073452E-02 -0.48766316E-02
 -0.47108591E-02 -0.28063833E-02  0.45544168E-02
  0.45437592E-02  0.48932950E-04 -0.10808629E-02
  0.51504853E-02  0.53998585E-02 -0.18395779E-02
  0.00000000E+00  0.00000000E+00  0.00000000E+00
  0.00000000E+00  0.00000000E+00  0.00000000E+00
  0.00000000E+00  0.00000000E+00  0.00000000E+00
  0.00000000E+00  0.00000000E+00  0.00000000E+00
  0.00000000E+00  0.00000000E+00  0.00000000E+00
  0.00000000E+00  0.00000000E+00  0.00000000E+00
  0.00000000E+00  0.00000000E+00  0.00000000E+00
  0.00000000E+00  0.00000000E+00  0.00000000E+00
  0.00000000E+00  0.00000000E+00  0.00000000E+00
  0.00000000E+00  0.00000000E+00  0.00000000E+00
  0.00000000E+00  0.00000000E+00  0.00000000E+00
  0.00000000E+00  0.00000000E+00  0.00000000E+00
  0.00000000E+00  0.00000000E+00  0.00000000E+00
  0.00000000E+00  0.00000000E+00  0.00000000E+00
  0.00000000E+00  0.00000000E+00  0.00000000E+00
  0.00000000E+00  0.00000000E+00  0.00000000E+00
  0.00000000E+00  0.00000000E+00  0.00000000E+00
  0.00000000E+00  0.00000000E+00  0.00000000E+00
  0.00000000E+00  0.00000000E+00  0.00000000E+00
  0.00000000E+00  0.00000000E+00  0.00000000E+00
  0.00000000E+00  0.00000000E+00  0.00000000E+00
  0.00000000E+00  0.00000000E+00  0.00000000E+00
  0.00000000E+00  0.00000000E+00  0.00000000E+00
  0.00000000E+00  0.00000000E+00  0.00000000E+00
 -0.13181826E-02 -0.17421200E-03  0.82272701E-03
  0.77553909E-03  0.14812522E-02 -0.13541878E-02
 -0.23227673E-02 -0.29687708E-03  0.15782603E-02
  0.10578511E-02 -0.88017194E-03 -0.65448471E-03
 -0.67752770E-03  0.89154991E-03 -0.87489801E-03
 -0.37700943E-03  0.13874596E-02 -0.13917030E-02
  0.25548111E-02 -0.55894614E-03 -0.94267962E-03
 -0.10492166E-03 -0.17514080E-02 -0.64811195E-04
 -0.20539811E-02  0.12955455E-02 -0.58067724E-04
  0.13289590E-02  0.11510878E-02 -0.18599318E-03
 -0.10127425E-02  0.12972134E-02 -0.93267171E-05
 -0.14544426E-02  0.19445189E-02  0.12961541E-02
 
           1
   1.00000000000000     
  0.64986540E+01 -0.32219904E-01 -0.25229225E-17  0.00000000E+00
  0.21304072E+00  0.45473931E+00  0.50846637E+00
  0.21313953E+00  0.48322638E+00  0.46223750E+00
  0.76800071E+00  0.84395059E+00  0.46389812E+00
  0.79007906E+00  0.68469112E+00  0.47410776E+00
  0.61933552E+00  0.98255804E+00  0.50891211E+00
  0.60094013E+00  0.51339267E-01  0.46527834E+00
  0.56648380E-01  0.72157111E+00  0.45643511E+00
  0.22729339E+00  0.81313392E+00  0.45858715E+00
  0.30995377E+00  0.21739743E+00  0.67377805E+00
  0.39448449E+00  0.79929205E-01  0.67848112E+00
  0.78763158E+00  0.53723784E+00  0.59189330E+00
  0.77729185E+00  0.69351013E+00  0.59701401E+00
  0.86920694E+00  0.41458479E+00  0.75671171E+00
  0.75847196E+00  0.35925057E+00  0.72218012E+00
  0.46249583E+00  0.79736345E+00  0.69600434E+00
  0.59768818E+00  0.91170549E+00  0.70050119E+00
  0.45781954E+00  0.72681888E+00  0.61809471E+00
  0.23432551E+00  0.14209239E+00  0.56315336E+00
  0.20113777E+00  0.82338187E+00  0.63484843E+00
  0.15300227E+00  0.93073762E+00  0.67266949E+00
  0.67142786E+00  0.53306928E+00  0.65708636E+00
  0.55961679E+00  0.39640487E+00  0.66719781E+00
  0.79583864E+00  0.50703356E-01  0.62617284E+00
  0.63003694E+00  0.10722019E+00  0.63868816E+00
  0.81755513E+00  0.14457686E+00  0.49575877E+00
  0.97076448E+00  0.18783654E+00  0.46888216E+00
  0.25950972E+00  0.44327552E-01  0.46650293E+00
  0.27690745E+00  0.98967208E+00  0.51056637E+00
  0.95647623E+00  0.85344705E+00  0.62195472E+00
  0.97798737E+00  0.91448103E+00  0.58166585E+00
  0.49219629E+00  0.39173037E+00  0.47655866E+00
  0.60697833E+00  0.28173623E+00  0.45854343E+00
  0.85799104E+00  0.31473033E+00  0.55504439E+00
  0.85479962E+00  0.26413980E+00  0.60242627E+00
  0.46042218E+00  0.20984795E+00  0.58486482E+00
  0.47460863E+00  0.27484346E+00  0.54295919E+00
  0.26592930E+00  0.42601696E+00  0.58859568E+00
  0.90496884E-01  0.44247483E+00  0.58279942E+00
  0.64170066E-01  0.16268027E+00  0.71145434E+00
  0.94324955E+00  0.13081662E+00  0.67910248E+00
  0.86501998E-01  0.12460991E+00  0.53763927E+00
  0.32747525E+00  0.67975753E+00  0.58583665E+00
  0.72577221E+00  0.44177779E+00  0.50478582E+00
  0.72011999E+00  0.56395148E+00  0.53544921E+00
  0.49351414E+00  0.91173040E+00  0.57385472E+00
  0.67300859E+00  0.97609502E+00  0.57829188E+00
  0.27805943E+00  0.64673476E+00  0.69434894E+00
  0.44761443E+00  0.57550908E+00  0.69490640E+00
  0.23732503E+00  0.41305842E+00  0.48205722E+00
  0.82944579E+00  0.76109403E+00  0.45865413E+00
  0.67677882E+00  0.99416720E+00  0.48256782E+00
  0.17643603E+00  0.71301921E+00  0.44872599E+00
  0.41221577E+00  0.17200732E+00  0.66485980E+00
  0.71289476E+00  0.61060449E+00  0.60335576E+00
  0.84129998E+00  0.32656124E+00  0.74132906E+00
  0.51124913E+00  0.88732275E+00  0.68330687E+00
  0.15492939E+00  0.72776265E-01  0.55636403E+00
  0.12359361E+00  0.84747316E+00  0.65794073E+00
  0.62031697E+00  0.47320872E+00  0.67858442E+00
  0.74819780E+00  0.12928821E+00  0.63999565E+00
  0.93199981E+00  0.16886856E+00  0.49759140E+00
  0.29615489E+00  0.96309924E+00  0.48118050E+00
  0.88804888E+00  0.87257934E+00  0.59780850E+00
  0.57352959E+00  0.32688353E+00  0.48433762E+00
  0.88119777E+00  0.34760765E+00  0.58351438E+00
  0.41679770E+00  0.28517072E+00  0.56870608E+00
  0.18984143E+00  0.49810886E+00  0.58136179E+00
  0.57095876E-01  0.12763679E+00  0.68340728E+00
  0.36297681E+00  0.75704748E+00  0.60297714E+00
  0.77943994E+00  0.53397673E+00  0.51168999E+00
  0.56025534E+00  0.99214768E+00  0.56725670E+00
  0.38993735E+00  0.65923642E+00  0.70340099E+00
  0.16666667E+00  0.83333333E-01  0.24123678E+00
  0.50000000E+00  0.83333333E-01  0.24123678E+00
  0.83333333E+00  0.83333333E-01  0.24123678E+00
  0.00000000E+00  0.33333333E+00  0.24123678E+00
  0.33333333E+00  0.33333333E+00  0.24123678E+00
  0.66666667E+00  0.33333333E+00  0.24123678E+00
  0.16666667E+00  0.58333333E+00  0.24123678E+00
  0.50000000E+00  0.58333333E+00  0.24123678E+00
  0.83333333E+00  0.58333333E+00  0.24123678E+00
  0.00000000E+00  0.83333333E+00  0.24123678E+00
  0.33333333E+00  0.83333333E+00  0.24123678E+00
  0.66666667E+00  0.83333333E+00  0.24123678E+00
  0.00000000E+00  0.16666667E+00  0.31103576E+00
  0.33333333E+00  0.16666667E+00  0.31103576E+00
  0.66666667E+00  0.16666667E+00  0.31103576E+00
  0.16666667E+00  0.41666667E+00  0.31103576E+00
  0.50000000E+00  0.41666667E+00  0.31103576E+00
  0.83333333E+00  0.41666667E+00  0.31103576E+00
  0.00000000E+00  0.66666667E+00  0.31103576E+00
  0.33333333E+00  0.66666667E+00  0.31103576E+00
  0.66666667E+00  0.66666667E+00  0.31103576E+00
  0.16666667E+00  0.91666667E+00  0.31103576E+00
  0.50000000E+00  0.91666667E+00  0.31103576E+00
  0.83333333E+00  0.91666667E+00  0.31103576E+00
  0.99865360E+00  0.75124588E-02  0.38569333E+00
  0.34518137E+00  0.99232034E+00  0.38364119E+00
  0.66998172E+00  0.35522934E-05  0.38190363E+00
  0.15744833E+00  0.24610335E+00  0.38832232E+00
  0.50669335E+00  0.25482928E+00  0.38470810E+00
  0.83314722E+00  0.23941238E+00  0.38235599E+00
  0.97350298E+00  0.49088964E+00  0.38689777E+00
  0.31257618E+00  0.48855631E+00  0.38084694E+00
  0.64527209E+00  0.51491559E+00  0.38583878E+00
  0.15484848E+00  0.73944978E+00  0.38165429E+00
  0.48295249E+00  0.75493364E+00  0.38333483E+00
  0.81931142E+00  0.75544931E+00  0.38234597E+00
  0.23205511E-02 -0.78000512E-03  0.26957772E-03
  0.83094052E-03 -0.90550239E-04 -0.15494738E-05
 -0.27222626E-03 -0.18454476E-02 -0.63637729E-03
  0.23910902E-02  0.20936420E-02  0.61324571E-03
 -0.14950054E-02  0.32790082E-03 -0.41982755E-03
 -0.12714907E-02  0.13672423E-02 -0.14318898E-03
 -0.32044512E-02 -0.95910935E-03 -0.35149568E-03
  0.28299993E-02  0.31537864E-02  0.74861237E-03
 -0.21397386E-02 -0.67056469E-03 -0.21215379E-03
 -0.24820884E-02 -0.13598398E-02 -0.52134558E-03
 -0.18011291E-02  0.15854731E-03 -0.30643117E-03
  0.42734019E-02  0.11881110E-02 -0.68161484E-03
  0.46555418E-02 -0.18887467E-03 -0.14653631E-03
  0.25196869E-02  0.14684059E-02 -0.45060076E-04
  0.15895766E-02 -0.18580347E-02 -0.27132649E-03
 -0.15645694E-02  0.25152416E-02 -0.33071038E-03
 -0.20819859E-02  0.11008426E-02  0.31678280E-03
 -0.25249614E-02  0.11095974E-02  0.12007965E-03
  0.10643594E-02  0.41678273E-03 -0.10190380E-02
 -0.28021114E-03 -0.17398701E-02  0.63811926E-04
 -0.77999491E-03  0.23627902E-02 -0.34440751E-03
 -0.78096351E-03  0.99256106E-03  0.79216424E-03
 -0.20804079E-02  0.70747690E-03 -0.51159045E-03
 -0.33350755E-02  0.29814143E-03 -0.88843593E-03
 -0.27302933E-02 -0.54631567E-03 -0.49969519E-03
  0.15742115E-02 -0.30081761E-03 -0.22716555E-03
 -0.20750979E-02 -0.35750867E-03  0.31125113E-03
 -0.30215762E-02 -0.67371405E-03  0.25919374E-03
  0.13301262E-02 -0.38785498E-03 -0.41389236E-03
  0.23918566E-02 -0.11586090E-02 -0.48560290E-03
  0.16817059E-02 -0.62510174E-03  0.76203492E-03
 -0.53711310E-03 -0.22189947E-02  0.13474233E-03
  0.23948915E-02  0.39576089E-03 -0.12988231E-03
 -0.26730308E-02 -0.36354339E-02 -0.59606121E-03
 -0.35803083E-02 -0.12953377E-02 -0.50481722E-03
 -0.67779435E-03 -0.82069366E-03  0.56341575E-03
  0.64627689E-03  0.75889830E-03  0.99135250E-03
  0.91874063E-03  0.27799902E-04 -0.33051874E-03
 -0.21006119E-02  0.24667261E-02  0.17018040E-03
  0.30961113E-02  0.17510376E-02  0.24972910E-03
 -0.22913902E-02 -0.11690861E-02 -0.46447304E-03
 -0.56225520E-03 -0.23751310E-02  0.31830242E-03
  0.12266433E-02 -0.32063460E-02  0.82806153E-03
  0.17028743E-02 -0.12500887E-02  0.61963924E-04
  0.94453037E-03  0.15149188E-02 -0.50979156E-04
  0.39930208E-02 -0.22174952E-03 -0.12910445E-03
  0.81702808E-03 -0.38700052E-03  0.19600869E-03
 -0.42025856E-02 -0.60642767E-03 -0.88410933E-04
 -0.10872303E-02 -0.22104619E-04 -0.10348851E-03
 -0.32827145E-03 -0.10439049E-03  0.13034876E-04
 -0.28700749E-03 -0.28170677E-03  0.14486845E-03
  0.31213284E-03  0.13668904E-03 -0.85588699E-05
 -0.56592857E-03 -0.21167315E-04 -0.11382439E-03
 -0.30644012E-03 -0.24461972E-03 -0.93900068E-04
  0.10590819E-03 -0.12977589E-03 -0.12893691E-03
 -0.61340181E-03  0.45509429E-03  0.81774009E-04
 -0.26303313E-03  0.92959046E-04 -0.52885603E-04
 -0.25442646E-03  0.39247899E-03 -0.16872988E-03
  0.10474310E-02 -0.46980335E-03  0.43825541E-04
  0.15593674E-03 -0.51919468E-03  0.11765847E-03
  0.58859525E-04 -0.34114982E-03  0.17884813E-04
 -0.29295953E-04 -0.25631298E-03  0.27252175E-05
  0.15700904E-02 -0.12400632E-02  0.17958591E-03
  0.26576408E-03  0.40162301E-03 -0.88609746E-04
  0.23705393E-03  0.88119152E-04 -0.86298322E-05
  0.35456182E-03 -0.12841751E-03  0.11260120E-03
 -0.16230163E-03  0.52379939E-03  0.12984800E-03
 -0.28770087E-03 -0.35573497E-03  0.60819290E-04
 -0.37911677E-03 -0.25017024E-03 -0.15175858E-03
 -0.54669496E-03 -0.26942726E-03  0.13961591E-03
  0.52353092E-03  0.96061336E-05 -0.33105750E-04
  0.66554311E-03  0.58124240E-03 -0.58460362E-04
  0.00000000E+00  0.00000000E+00  0.00000000E+00
  0.00000000E+00  0.00000000E+00  0.00000000E+00
  0.00000000E+00  0.00000000E+00  0.00000000E+00
  0.00000000E+00  0.00000000E+00  0.00000000E+00
  0.00000000E+00  0.00000000E+00  0.00000000E+00
  0.00000000E+00  0.00000000E+00  0.00000000E+00
  0.00000000E+00  0.00000000E+00  0.00000000E+00
  0.00000000E+00  0.00000000E+00  0.00000000E+00
  0.00000000E+00  0.00000000E+00  0.00000000E+00
  0.00000000E+00  0.00000000E+00  0.00000000E+00
  0.00000000E+00  0.00000000E+00  0.00000000E+00
  0.00000000E+00  0.00000000E+00  0.00000000E+00
  0.00000000E+00  0.00000000E+00  0.00000000E+00
  0.00000000E+00  0.00000000E+00  0.00000000E+00
  0.00000000E+00  0.00000000E+00  0.00000000E+00
  0.00000000E+00  0.00000000E+00  0.00000000E+00
  0.00000000E+00  0.00000000E+00  0.00000000E+00
  0.00000000E+00  0.00000000E+00  0.00000000E+00
  0.00000000E+00  0.00000000E+00  0.00000000E+00
  0.00000000E+00  0.00000000E+00  0.00000000E+00
  0.00000000E+00  0.00000000E+00  0.00000000E+00
  0.00000000E+00  0.00000000E+00  0.00000000E+00
  0.00000000E+00  0.00000000E+00  0.00000000E+00
  0.00000000E+00  0.00000000E+00  0.00000000E+00
 -0.15898285E-03 -0.15859176E-04  0.25436759E-04
  0.95473735E-04  0.15003021E-03 -0.41303314E-04
 -0.27640857E-03 -0.31364123E-04  0.48262413E-04
  0.12508214E-03 -0.91148441E-04 -0.19776013E-04
 -0.79387221E-04  0.92753684E-04 -0.26646397E-04
 -0.44264023E-04  0.14167943E-03 -0.42927723E-04
  0.30460854E-03 -0.58058665E-04 -0.28496649E-04
 -0.13890969E-04 -0.18141337E-03 -0.21286107E-05
 -0.24573312E-03  0.13581020E-03 -0.15610637E-05
  0.15928272E-03  0.11844989E-03 -0.57246501E-05
 -0.12277842E-03  0.13599397E-03 -0.20710498E-06
 -0.17432600E-03  0.20261839E-03  0.39458697E-04
  0.00000000E+00  0.00000000E+00  0.00000000E+00
  0.00000000E+00  0.00000000E+00  0.00000000E+00
  0.00000000E+00  0.00000000E+00  0.00000000E+00
  0.00000000E+00  0.00000000E+00  0.00000000E+00
  0.00000000E+00  0.00000000E+00  0.00000000E+00
  0.00000000E+00  0.00000000E+00  0.00000000E+00
  0.00000000E+00  0.00000000E+00  0.00000000E+00
  0.00000000E+00  0.00000000E+00  0.00000000E+00
  0.00000000E+00  0.00000000E+00  0.00000000E+00
  0.00000000E+00  0.00000000E+00  0.00000000E+00
  0.00000000E+00  0.00000000E+00  0.00000000E+00
  0.00000000E+00  0.00000000E+00  0.00000000E+00
  0.00000000E+00  0.00000000E+00  0.00000000E+00
  0.00000000E+00  0.00000000E+00  0.00000000E+00
  0.00000000E+00  0.00000000E+00  0.00000000E+00
  0.00000000E+00  0.00000000E+00  0.00000000E+00
  0.00000000E+00  0.00000000E+00  0.00000000E+00
  0.00000000E+00  0.00000000E+00  0.00000000E+00
  0.00000000E+00  0.00000000E+00  0.00000000E+00
  0.00000000E+00  0.00000000E+00  0.00000000E+00
  0.00000000E+00  0.00000000E+00  0.00000000E+00
  0.00000000E+00  0.00000000E+00  0.00000000E+00
  0.00000000E+00  0.00000000E+00  0.00000000E+00
  0.00000000E+00  0.00000000E+00  0.00000000E+00
  0.00000000E+00  0.00000000E+00  0.00000000E+00
  0.00000000E+00  0.00000000E+00  0.00000000E+00
  0.00000000E+00  0.00000000E+00  0.00000000E+00
  0.00000000E+00  0.00000000E+00  0.00000000E+00
  0.00000000E+00  0.00000000E+00  0.00000000E+00
  0.00000000E+00  0.00000000E+00  0.00000000E+00
  0.00000000E+00  0.00000000E+00  0.00000000E+00
  0.00000000E+00  0.00000000E+00  0.00000000E+00
  0.00000000E+00  0.00000000E+00  0.00000000E+00
  0.00000000E+00  0.00000000E+00  0.00000000E+00
  0.00000000E+00  0.00000000E+00  0.00000000E+00
  0.00000000E+00  0.00000000E+00  0.00000000E+00
  0.00000000E+00  0.00000000E+00  0.00000000E+00
  0.00000000E+00  0.00000000E+00  0.00000000E+00
  0.00000000E+00  0.00000000E+00  0.00000000E+00
  0.00000000E+00  0.00000000E+00  0.00000000E+00
  0.00000000E+00  0.00000000E+00  0.00000000E+00
  0.00000000E+00  0.00000000E+00  0.00000000E+00
  0.00000000E+00  0.00000000E+00  0.00000000E+00
  0.00000000E+00  0.00000000E+00  0.00000000E+00
  0.00000000E+00  0.00000000E+00  0.00000000E+00
  0.00000000E+00  0.00000000E+00  0.00000000E+00
  0.00000000E+00  0.00000000E+00  0.00000000E+00
  0.00000000E+00  0.00000000E+00  0.00000000E+00
  0.00000000E+00  0.00000000E+00  0.00000000E+00
  0.00000000E+00  0.00000000E+00  0.00000000E+00
  0.00000000E+00  0.00000000E+00  0.00000000E+00
  0.00000000E+00  0.00000000E+00  0.00000000E+00
  0.00000000E+00  0.00000000E+00  0.00000000E+00
  0.00000000E+00  0.00000000E+00  0.00000000E+00
  0.00000000E+00  0.00000000E+00  0.00000000E+00
  0.00000000E+00  0.00000000E+00  0.00000000E+00
  0.00000000E+00  0.00000000E+00  0.00000000E+00
  0.00000000E+00  0.00000000E+00  0.00000000E+00
  0.00000000E+00  0.00000000E+00  0.00000000E+00
  0.00000000E+00  0.00000000E+00  0.00000000E+00
  0.00000000E+00  0.00000000E+00  0.00000000E+00
  0.00000000E+00  0.00000000E+00  0.00000000E+00
  0.00000000E+00  0.00000000E+00  0.00000000E+00
  0.00000000E+00  0.00000000E+00  0.00000000E+00
  0.00000000E+00  0.00000000E+00  0.00000000E+00
  0.00000000E+00  0.00000000E+00  0.00000000E+00
  0.00000000E+00  0.00000000E+00  0.00000000E+00
  0.00000000E+00  0.00000000E+00  0.00000000E+00
  0.00000000E+00  0.00000000E+00  0.00000000E+00
  0.00000000E+00  0.00000000E+00  0.00000000E+00
  0.00000000E+00  0.00000000E+00  0.00000000E+00
  0.00000000E+00  0.00000000E+00  0.00000000E+00
  0.00000000E+00  0.00000000E+00  0.00000000E+00
  0.00000000E+00  0.00000000E+00  0.00000000E+00
  0.00000000E+00  0.00000000E+00  0.00000000E+00
  0.00000000E+00  0.00000000E+00  0.00000000E+00
  0.00000000E+00  0.00000000E+00  0.00000000E+00
  0.00000000E+00  0.00000000E+00  0.00000000E+00
  0.00000000E+00  0.00000000E+00  0.00000000E+00
  0.00000000E+00  0.00000000E+00  0.00000000E+00
  0.00000000E+00  0.00000000E+00  0.00000000E+00
  0.00000000E+00  0.00000000E+00  0.00000000E+00
  0.00000000E+00  0.00000000E+00  0.00000000E+00
  0.00000000E+00  0.00000000E+00  0.00000000E+00
  0.00000000E+00  0.00000000E+00  0.00000000E+00
  0.00000000E+00  0.00000000E+00  0.00000000E+00
  0.00000000E+00  0.00000000E+00  0.00000000E+00
  0.00000000E+00  0.00000000E+00  0.00000000E+00
  0.00000000E+00  0.00000000E+00  0.00000000E+00
  0.00000000E+00  0.00000000E+00  0.00000000E+00
  0.00000000E+00  0.00000000E+00  0.00000000E+00
  0.00000000E+00  0.00000000E+00  0.00000000E+00
  0.00000000E+00  0.00000000E+00  0.00000000E+00
  0.00000000E+00  0.00000000E+00  0.00000000E+00
  0.00000000E+00  0.00000000E+00  0.00000000E+00
  0.00000000E+00  0.00000000E+00  0.00000000E+00
  0.00000000E+00  0.00000000E+00  0.00000000E+00
  0.00000000E+00  0.00000000E+00  0.00000000E+00
  0.00000000E+00  0.00000000E+00  0.00000000E+00
  0.00000000E+00  0.00000000E+00  0.00000000E+00
  0.00000000E+00  0.00000000E+00  0.00000000E+00
  0.00000000E+00  0.00000000E+00  0.00000000E+00
  0.00000000E+00  0.00000000E+00  0.00000000E+00
  0.00000000E+00  0.00000000E+00  0.00000000E+00
  0.00000000E+00  0.00000000E+00  0.00000000E+00
  0.00000000E+00  0.00000000E+00  0.00000000E+00
  0.00000000E+00  0.00000000E+00  0.00000000E+00
  0.00000000E+00  0.00000000E+00  0.00000000E+00
